[Molden Format]
made by pyscf v[2.0.1]
[Atoms] (AU)
Fe   1   26     0.00000000000000     0.00000000000000     0.00000000000000
C   2   6    -1.34831958987717    -1.85580365090299    -3.11426865328322
C   3   6     1.34831958987717    -1.85580365090299    -3.11426865328322
C   4   6     2.18162644984825     0.70885327685948    -3.11426865328322
C   5   6     0.00000000000000     2.29389885836091    -3.11426865328322
C   6   6    -2.18162644984825     0.70885327685948    -3.11426865328322
H   7   1    -2.54677255971959    -3.50533235695297    -3.09576445507148
H   8   1     2.54677255971959    -3.50533235695297    -3.09576445507148
H   9   1     4.12076513311844     1.33891820240746    -3.09576445507148
H   10   1     0.00000000000000     4.33283019881713    -3.09576445507148
H   11   1    -4.12076513311844     1.33891820240746    -3.09576445507148
C   12   6    -1.34831958987717    -1.85580365090299     3.11426865328322
C   13   6    -2.18162644984825     0.70885327685948     3.11426865328322
C   14   6     0.00000000000000     2.29389885836091     3.11426865328322
C   15   6     2.18162644984825     0.70885327685948     3.11426865328322
C   16   6     1.34831958987717    -1.85580365090299     3.11426865328322
H   17   1    -2.54677255971959    -3.50533235695297     3.09576445507148
H   18   1    -4.12076513311844     1.33891820240746     3.09576445507148
H   19   1     0.00000000000000     4.33283019881713     3.09576445507148
H   20   1     4.12076513311844     1.33891820240746     3.09576445507148
H   21   1     2.54677255971959    -3.50533235695297     3.09576445507148
[GTO]
1 0
 s   19 1.00
               4316265  0.00013999985101555
              646342.4  0.00040499956900927
              147089.7  0.0011189988091886
              41661.52  0.0029069969064443
              13590.77  0.0075709919431339
               4905.75   0.019817978910187
              1912.746   0.050733946010164
              792.6043    0.11872887365161
              344.8065    0.23116375400113
              155.8999    0.31932166018562
              72.23091    0.23364775135772
              32.72506   0.074021921227666
              15.66762   0.090951903211189
              7.503483   0.088897905397004
              3.312223   0.014301984780174
              1.558471  -0.00038699958816441
              0.683914  7.999991486603e-06
              0.146757  -2.4999973395634e-05
              0.070583  3.1999965946411e-05
 s   19 1.00
               4316265  -7.1999772729672e-05
              646342.4  -0.00020899934028474
              147089.7  -0.00057899817236778
              41661.52  -0.0015059952462623
              13590.77  -0.0039389875664191
               4905.75   -0.01039596718469
              1912.746  -0.027073914540044
              792.6043  -0.065776792372773
              344.8065   -0.13908156098317
              155.8999   -0.23014927352408
              72.23091   -0.22966227506132
              32.72506   0.046090854512268
              15.66762    0.51504937422487
              7.503483    0.48717346221636
              3.312223   0.084379733651802
              1.558471  -0.0059109813417374
              0.683914  -4.3999861112577e-05
              0.146757  -0.00048699846276875
              0.070583  0.00043699862059537
 s   19 1.00
               4316265  1.7010677802068e-05
              646342.4  4.9030777194197e-05
              147089.7  0.00013508479431054
              41661.52  0.00035222109331341
              13590.77  0.0009235797418417
               4905.75  0.0024535401159218
              1912.746  0.0064550519118319
              792.6043   0.016116116275301
              344.8065   0.035764449764795
              155.8999   0.065569158530231
              72.23091   0.074476749929879
              32.72506  -0.025727149233469
              15.66762   -0.30883886177761
              7.503483   -0.44682447696746
              3.312223    0.14907857837301
              1.558471    0.72084748442476
              0.683914    0.38994277165355
              0.146757   0.019196049585581
              0.070583  -0.0070274111884662
 s   19 1.00
               4316265  -5.3110130885542e-06
              646342.4  -1.4605285993524e-05
              147089.7  -3.8504844892018e-05
              41661.52  -0.00010223700195467
              13590.77  -0.00026687840769985
               4905.75  -0.00071034800059412
              1912.746  -0.0018694766071711
              792.6043  -0.0046710360113834
              344.8065  -0.010375064068491
              155.8999  -0.019082470027175
              72.23091  -0.021752581857446
              32.72506  0.0074925117146778
              15.66762   0.094563915794979
              7.503483    0.14313180273653
              3.312223  -0.058769015331396
              1.558471   -0.30007091175004
              0.683914   -0.31551135455174
              0.146757    0.39537836937741
              0.070583    0.75084049213453
 s   19 1.00
               4316265  -7.2700773333707e-06
              646342.4  -2.1810232000112e-05
              147089.7  -6.0237783619357e-05
              41661.52  -0.00016098028381035
              13590.77  -0.00040816291314495
               4905.75  -0.0011434793062916
              1912.746  -0.0027969026083953
              792.6043  -0.0076896646537538
              344.8065   -0.01504282858522
              155.8999  -0.033081967614265
              72.23091  -0.026330142936516
              32.72506  -0.0081912999897563
              15.66762    0.19885738671721
              7.503483    0.15396154343622
              3.312223   0.052719485074175
              1.558471    -1.0513009571993
              0.683914     0.3555472863184
              0.146757     1.9289239212343
              0.070583    -1.1047183696975
 s   19 1.00
               4316265  -7.2610126126517e-06
              646342.4  -2.1783037837955e-05
              147089.7  -5.9903354054376e-05
              41661.52  -0.00015913719309395
              13590.77  -0.00040177603123339
               4905.75  -0.0011309027144205
              1912.746  -0.0027482932738887
              792.6043  -0.0076246683276687
              344.8065  -0.014777975919899
              155.8999  -0.033069071775553
              72.23091  -0.025740894796235
              32.72506  -0.009674694221974
              15.66762    0.20933741396029
              7.503483    0.19401486209444
              3.312223   -0.12230268119435
              1.558471     -1.307389492068
              0.683914     1.5898507487971
              0.146757   -0.28768858072587
              0.070583   -0.94793306267867
 s    1 1.00
              0.031449                   1
 p   15 1.00
              17745.69  0.00012299998250278
              4200.721  0.00056599991948432
              1364.429   0.002607999629002
              522.0806   0.010294998535497
              221.4595   0.034750995056537
              100.9096   0.096689986245477
              48.40115    0.21002997012242
              23.98536    0.33245695270671
               12.1825    0.33077095294655
              6.242298    0.15473297798864
              3.110944    0.02096399701779
              1.509958  -0.0023459996662725
              0.710845  -0.0018539997362614
              0.272598  -0.00031699995490553
              0.103972  2.9999995732385e-05
 p   15 1.00
              17745.69  -4.3004674561854e-05
              4200.721  -0.00020002174214816
              1364.429  -0.00092310034001375
              522.0806  -0.0036683987509972
              221.4595  -0.012540363123979
              100.9096  -0.035851897062636
              48.40115  -0.080830786219492
              23.98536   -0.13471164301065
               12.1825   -0.13692688380494
              6.242298   0.033716664965204
              3.110944    0.33570649093436
              1.509958    0.45554551730759
              0.710845    0.28179063033832
              0.272598   0.045154908289947
              0.103972  -0.0031653440694946
 p   15 1.00
              17745.69  1.2588884810417e-05
              4200.721  6.154565907315e-05
              1364.429  0.00028115176076598
              522.0806  0.0011190119831482
              221.4595  0.0038298185123246
              100.9096   0.010977507554684
              48.40115   0.024812691961332
              23.98536   0.041611859358344
               12.1825   0.042507068944862
              6.242298  -0.015057704998238
              3.110944   -0.12265630223785
              1.509958   -0.17969933684381
              0.710845   -0.10350301338129
              0.272598    0.30137090853649
              0.103972    0.80010056177584
 p   15 1.00
              17745.69  1.4521046691587e-05
              4200.721  6.8456362974625e-05
              1364.429  0.00031427693911078
              522.0806  0.0012643682797889
              221.4595  0.0042733365978099
              100.9096   0.012397862221753
              48.40115   0.027610733066432
              23.98536   0.047399808054203
               12.1825   0.046709021118732
              6.242298  -0.013495238464589
              3.110944   -0.14663664114451
              1.509958   -0.20137372664845
              0.710845   -0.10555763727163
              0.272598    0.48527678495091
              0.103972     0.6474499088378
 p   15 1.00
              17745.69  3.1575163159924e-05
              4200.721   0.000141035728781
              1364.429  0.00069360108407967
              522.0806  0.0025754808084112
              221.4595  0.0094872840241186
              100.9096   0.025073837065296
              48.40115   0.062480932860858
              23.98536   0.092178426318206
               12.1825    0.12870668007248
              6.242298  -0.071688250438292
              3.110944   -0.37038403140398
              1.509958   -0.65645395712746
              0.710845    0.88562859635307
              0.272598    0.83365798280271
              0.103972   -0.96568426502874
 p    1 1.00
              0.038166                   1
 d    7 1.00
               114.884  0.0035899954580237
               33.8878   0.025969531130381
                12.373   0.099972022441914
               4.99925     0.2418256311941
               2.07043    0.36239337219941
              0.828183     0.3688059660116
              0.307547    0.24272414647861
 d    7 1.00
               114.884  -0.0050372407451071
               33.8878  -0.036469571277524
                12.373   -0.14425566264215
               4.99925   -0.35276071038354
               2.07043   -0.41005415215405
              0.828183   0.067312327431151
              0.307547    0.72567943423139
 d    7 1.00
               114.884  0.0067596091341507
               33.8878   0.049415196284741
                12.373    0.20391783872816
               4.99925    0.48431064518287
               2.07043    0.14166969695938
              0.828183   -0.90796378430765
              0.307547  -0.051062725075986
 d    1 1.00
              0.099455                   1
 f    1 1.00
                3.2243                   1
 f    1 1.00
                0.7758                   1
 g    1 1.00
                2.0515                   1

2 0
 s    8 1.00
                  8236  0.00069173858650978
                  1235  0.0043703537247225
                 280.8   0.021816119366866
                 79.27   0.083950220205516
                 25.59    0.24011817356576
                 8.997    0.44358431458639
                 3.319    0.35315573575216
                0.3643  -0.009146945541375
 s    8 1.00
                  8236  -0.00025110442737271
                  1235  -0.0015910810636848
                 280.8  -0.0079990227656699
                 79.27  -0.031676345632669
                 25.59   -0.09708618168087
                 8.997   -0.22067456759301
                 3.319   -0.29559943680439
                0.3643     1.0403473644414
 s    1 1.00
                0.9059                   1
 s    1 1.00
                0.1285                   1
 p    3 1.00
                 18.71   0.039543715600555
                 4.133    0.24417088175427
                   1.2    0.81539097736404
 p    1 1.00
                0.3827                   1
 p    1 1.00
                0.1209                   1
 d    1 1.00
                 1.097                   1
 d    1 1.00
                 0.318                   1
 f    1 1.00
                 0.761                   1

3 0
 s    8 1.00
                  8236  0.00069173858650978
                  1235  0.0043703537247225
                 280.8   0.021816119366866
                 79.27   0.083950220205516
                 25.59    0.24011817356576
                 8.997    0.44358431458639
                 3.319    0.35315573575216
                0.3643  -0.009146945541375
 s    8 1.00
                  8236  -0.00025110442737271
                  1235  -0.0015910810636848
                 280.8  -0.0079990227656699
                 79.27  -0.031676345632669
                 25.59   -0.09708618168087
                 8.997   -0.22067456759301
                 3.319   -0.29559943680439
                0.3643     1.0403473644414
 s    1 1.00
                0.9059                   1
 s    1 1.00
                0.1285                   1
 p    3 1.00
                 18.71   0.039543715600555
                 4.133    0.24417088175427
                   1.2    0.81539097736404
 p    1 1.00
                0.3827                   1
 p    1 1.00
                0.1209                   1
 d    1 1.00
                 1.097                   1
 d    1 1.00
                 0.318                   1
 f    1 1.00
                 0.761                   1

4 0
 s    8 1.00
                  8236  0.00069173858650978
                  1235  0.0043703537247225
                 280.8   0.021816119366866
                 79.27   0.083950220205516
                 25.59    0.24011817356576
                 8.997    0.44358431458639
                 3.319    0.35315573575216
                0.3643  -0.009146945541375
 s    8 1.00
                  8236  -0.00025110442737271
                  1235  -0.0015910810636848
                 280.8  -0.0079990227656699
                 79.27  -0.031676345632669
                 25.59   -0.09708618168087
                 8.997   -0.22067456759301
                 3.319   -0.29559943680439
                0.3643     1.0403473644414
 s    1 1.00
                0.9059                   1
 s    1 1.00
                0.1285                   1
 p    3 1.00
                 18.71   0.039543715600555
                 4.133    0.24417088175427
                   1.2    0.81539097736404
 p    1 1.00
                0.3827                   1
 p    1 1.00
                0.1209                   1
 d    1 1.00
                 1.097                   1
 d    1 1.00
                 0.318                   1
 f    1 1.00
                 0.761                   1

5 0
 s    8 1.00
                  8236  0.00069173858650978
                  1235  0.0043703537247225
                 280.8   0.021816119366866
                 79.27   0.083950220205516
                 25.59    0.24011817356576
                 8.997    0.44358431458639
                 3.319    0.35315573575216
                0.3643  -0.009146945541375
 s    8 1.00
                  8236  -0.00025110442737271
                  1235  -0.0015910810636848
                 280.8  -0.0079990227656699
                 79.27  -0.031676345632669
                 25.59   -0.09708618168087
                 8.997   -0.22067456759301
                 3.319   -0.29559943680439
                0.3643     1.0403473644414
 s    1 1.00
                0.9059                   1
 s    1 1.00
                0.1285                   1
 p    3 1.00
                 18.71   0.039543715600555
                 4.133    0.24417088175427
                   1.2    0.81539097736404
 p    1 1.00
                0.3827                   1
 p    1 1.00
                0.1209                   1
 d    1 1.00
                 1.097                   1
 d    1 1.00
                 0.318                   1
 f    1 1.00
                 0.761                   1

6 0
 s    8 1.00
                  8236  0.00069173858650978
                  1235  0.0043703537247225
                 280.8   0.021816119366866
                 79.27   0.083950220205516
                 25.59    0.24011817356576
                 8.997    0.44358431458639
                 3.319    0.35315573575216
                0.3643  -0.009146945541375
 s    8 1.00
                  8236  -0.00025110442737271
                  1235  -0.0015910810636848
                 280.8  -0.0079990227656699
                 79.27  -0.031676345632669
                 25.59   -0.09708618168087
                 8.997   -0.22067456759301
                 3.319   -0.29559943680439
                0.3643     1.0403473644414
 s    1 1.00
                0.9059                   1
 s    1 1.00
                0.1285                   1
 p    3 1.00
                 18.71   0.039543715600555
                 4.133    0.24417088175427
                   1.2    0.81539097736404
 p    1 1.00
                0.3827                   1
 p    1 1.00
                0.1209                   1
 d    1 1.00
                 1.097                   1
 d    1 1.00
                 0.318                   1
 f    1 1.00
                 0.761                   1

7 0
 s    3 1.00
                 33.87   0.025531286985474
                 5.095    0.19038333652986
                 1.159    0.85213406274173
 s    1 1.00
                0.3258                   1
 s    1 1.00
                0.1027                   1
 p    1 1.00
                 1.407                   1
 p    1 1.00
                 0.388                   1
 d    1 1.00
                 1.057                   1

8 0
 s    3 1.00
                 33.87   0.025531286985474
                 5.095    0.19038333652986
                 1.159    0.85213406274173
 s    1 1.00
                0.3258                   1
 s    1 1.00
                0.1027                   1
 p    1 1.00
                 1.407                   1
 p    1 1.00
                 0.388                   1
 d    1 1.00
                 1.057                   1

9 0
 s    3 1.00
                 33.87   0.025531286985474
                 5.095    0.19038333652986
                 1.159    0.85213406274173
 s    1 1.00
                0.3258                   1
 s    1 1.00
                0.1027                   1
 p    1 1.00
                 1.407                   1
 p    1 1.00
                 0.388                   1
 d    1 1.00
                 1.057                   1

10 0
 s    3 1.00
                 33.87   0.025531286985474
                 5.095    0.19038333652986
                 1.159    0.85213406274173
 s    1 1.00
                0.3258                   1
 s    1 1.00
                0.1027                   1
 p    1 1.00
                 1.407                   1
 p    1 1.00
                 0.388                   1
 d    1 1.00
                 1.057                   1

11 0
 s    3 1.00
                 33.87   0.025531286985474
                 5.095    0.19038333652986
                 1.159    0.85213406274173
 s    1 1.00
                0.3258                   1
 s    1 1.00
                0.1027                   1
 p    1 1.00
                 1.407                   1
 p    1 1.00
                 0.388                   1
 d    1 1.00
                 1.057                   1

12 0
 s    8 1.00
                  8236  0.00069173858650978
                  1235  0.0043703537247225
                 280.8   0.021816119366866
                 79.27   0.083950220205516
                 25.59    0.24011817356576
                 8.997    0.44358431458639
                 3.319    0.35315573575216
                0.3643  -0.009146945541375
 s    8 1.00
                  8236  -0.00025110442737271
                  1235  -0.0015910810636848
                 280.8  -0.0079990227656699
                 79.27  -0.031676345632669
                 25.59   -0.09708618168087
                 8.997   -0.22067456759301
                 3.319   -0.29559943680439
                0.3643     1.0403473644414
 s    1 1.00
                0.9059                   1
 s    1 1.00
                0.1285                   1
 p    3 1.00
                 18.71   0.039543715600555
                 4.133    0.24417088175427
                   1.2    0.81539097736404
 p    1 1.00
                0.3827                   1
 p    1 1.00
                0.1209                   1
 d    1 1.00
                 1.097                   1
 d    1 1.00
                 0.318                   1
 f    1 1.00
                 0.761                   1

13 0
 s    8 1.00
                  8236  0.00069173858650978
                  1235  0.0043703537247225
                 280.8   0.021816119366866
                 79.27   0.083950220205516
                 25.59    0.24011817356576
                 8.997    0.44358431458639
                 3.319    0.35315573575216
                0.3643  -0.009146945541375
 s    8 1.00
                  8236  -0.00025110442737271
                  1235  -0.0015910810636848
                 280.8  -0.0079990227656699
                 79.27  -0.031676345632669
                 25.59   -0.09708618168087
                 8.997   -0.22067456759301
                 3.319   -0.29559943680439
                0.3643     1.0403473644414
 s    1 1.00
                0.9059                   1
 s    1 1.00
                0.1285                   1
 p    3 1.00
                 18.71   0.039543715600555
                 4.133    0.24417088175427
                   1.2    0.81539097736404
 p    1 1.00
                0.3827                   1
 p    1 1.00
                0.1209                   1
 d    1 1.00
                 1.097                   1
 d    1 1.00
                 0.318                   1
 f    1 1.00
                 0.761                   1

14 0
 s    8 1.00
                  8236  0.00069173858650978
                  1235  0.0043703537247225
                 280.8   0.021816119366866
                 79.27   0.083950220205516
                 25.59    0.24011817356576
                 8.997    0.44358431458639
                 3.319    0.35315573575216
                0.3643  -0.009146945541375
 s    8 1.00
                  8236  -0.00025110442737271
                  1235  -0.0015910810636848
                 280.8  -0.0079990227656699
                 79.27  -0.031676345632669
                 25.59   -0.09708618168087
                 8.997   -0.22067456759301
                 3.319   -0.29559943680439
                0.3643     1.0403473644414
 s    1 1.00
                0.9059                   1
 s    1 1.00
                0.1285                   1
 p    3 1.00
                 18.71   0.039543715600555
                 4.133    0.24417088175427
                   1.2    0.81539097736404
 p    1 1.00
                0.3827                   1
 p    1 1.00
                0.1209                   1
 d    1 1.00
                 1.097                   1
 d    1 1.00
                 0.318                   1
 f    1 1.00
                 0.761                   1

15 0
 s    8 1.00
                  8236  0.00069173858650978
                  1235  0.0043703537247225
                 280.8   0.021816119366866
                 79.27   0.083950220205516
                 25.59    0.24011817356576
                 8.997    0.44358431458639
                 3.319    0.35315573575216
                0.3643  -0.009146945541375
 s    8 1.00
                  8236  -0.00025110442737271
                  1235  -0.0015910810636848
                 280.8  -0.0079990227656699
                 79.27  -0.031676345632669
                 25.59   -0.09708618168087
                 8.997   -0.22067456759301
                 3.319   -0.29559943680439
                0.3643     1.0403473644414
 s    1 1.00
                0.9059                   1
 s    1 1.00
                0.1285                   1
 p    3 1.00
                 18.71   0.039543715600555
                 4.133    0.24417088175427
                   1.2    0.81539097736404
 p    1 1.00
                0.3827                   1
 p    1 1.00
                0.1209                   1
 d    1 1.00
                 1.097                   1
 d    1 1.00
                 0.318                   1
 f    1 1.00
                 0.761                   1

16 0
 s    8 1.00
                  8236  0.00069173858650978
                  1235  0.0043703537247225
                 280.8   0.021816119366866
                 79.27   0.083950220205516
                 25.59    0.24011817356576
                 8.997    0.44358431458639
                 3.319    0.35315573575216
                0.3643  -0.009146945541375
 s    8 1.00
                  8236  -0.00025110442737271
                  1235  -0.0015910810636848
                 280.8  -0.0079990227656699
                 79.27  -0.031676345632669
                 25.59   -0.09708618168087
                 8.997   -0.22067456759301
                 3.319   -0.29559943680439
                0.3643     1.0403473644414
 s    1 1.00
                0.9059                   1
 s    1 1.00
                0.1285                   1
 p    3 1.00
                 18.71   0.039543715600555
                 4.133    0.24417088175427
                   1.2    0.81539097736404
 p    1 1.00
                0.3827                   1
 p    1 1.00
                0.1209                   1
 d    1 1.00
                 1.097                   1
 d    1 1.00
                 0.318                   1
 f    1 1.00
                 0.761                   1

17 0
 s    3 1.00
                 33.87   0.025531286985474
                 5.095    0.19038333652986
                 1.159    0.85213406274173
 s    1 1.00
                0.3258                   1
 s    1 1.00
                0.1027                   1
 p    1 1.00
                 1.407                   1
 p    1 1.00
                 0.388                   1
 d    1 1.00
                 1.057                   1

18 0
 s    3 1.00
                 33.87   0.025531286985474
                 5.095    0.19038333652986
                 1.159    0.85213406274173
 s    1 1.00
                0.3258                   1
 s    1 1.00
                0.1027                   1
 p    1 1.00
                 1.407                   1
 p    1 1.00
                 0.388                   1
 d    1 1.00
                 1.057                   1

19 0
 s    3 1.00
                 33.87   0.025531286985474
                 5.095    0.19038333652986
                 1.159    0.85213406274173
 s    1 1.00
                0.3258                   1
 s    1 1.00
                0.1027                   1
 p    1 1.00
                 1.407                   1
 p    1 1.00
                 0.388                   1
 d    1 1.00
                 1.057                   1

20 0
 s    3 1.00
                 33.87   0.025531286985474
                 5.095    0.19038333652986
                 1.159    0.85213406274173
 s    1 1.00
                0.3258                   1
 s    1 1.00
                0.1027                   1
 p    1 1.00
                 1.407                   1
 p    1 1.00
                 0.388                   1
 d    1 1.00
                 1.057                   1

21 0
 s    3 1.00
                 33.87   0.025531286985474
                 5.095    0.19038333652986
                 1.159    0.85213406274173
 s    1 1.00
                0.3258                   1
 s    1 1.00
                0.1027                   1
 p    1 1.00
                 1.407                   1
 p    1 1.00
                 0.388                   1
 d    1 1.00
                 1.057                   1

[5d]
[7f]
[9g]

[MO]
 Sym= A
 Ene=               0
 Spin= Alpha
 Occup=    1.00000
   1     -0.03081680435622
   2     -0.17684051348042
   3     -0.39360900966546
   4     0.034652650436787
   5    -0.0027989523033866
   6    0.0060956503428905
   7    -0.0012854392434292
   8     -0.17526078751156
   9      0.37946379888901
  10     -0.72993554039189
  11    0.0050098392312923
  12    -0.0080383999038547
  13     -0.17899670489585
  14    0.0033053528381584
  15    0.0012297114577667
  16      0.05041718752667
  17    -0.0041141422014543
  18    -0.00068670336456487
  19    -0.043795130561064
  20    -7.5165635391039e-05
  21    0.0003951265425933
  22    0.0037250285539266
  23    -0.0011069750858483
  24    0.00041095034921496
  25    -0.0004248900442585
  26     -0.23839916605993
  27    -0.0088803484356441
  28    -0.009547060124044
  29    0.00011502563010538
  30    -0.00054851362073144
  31    0.0065619045898373
  32    -0.0011766562660014
  33    -0.0013806001342004
  34    5.4812083864381e-05
  35    0.00011591420285063
  36    0.00058146910020841
  37    -0.00011307611266876
  38    -0.00021484508848163
  39    1.845189212596e-05
  40    -6.9336421864996e-06
  41    -0.0088314932998068
  42    -0.0011228641454963
  43    -0.00013373713378841
  44    -2.7009504525575e-05
  45    -0.0002146989518042
  46    -0.0026712332584754
  47    7.3005389177557e-05
  48    -0.00016916922766801
  49    7.0514620445835e-06
  50    1.1014394868067e-05
  51    -6.2138941023029e-06
  52    4.4315684334222e-06
  53    -0.0020907661566456
  54    -4.3915009120441e-05
  55    1.2963052573036e-05
  56    4.1391290341964e-05
  57    1.561751613341e-05
  58    -1.6351794162957e-05
  59    3.8157497465157e-05
  60    -0.0018790525127857
  61    -7.4773609910868e-05
  62    -4.2044005639288e-05
  63    -1.1965880614619e-06
  64    3.8602344538493e-06
  65    -1.5877160754184e-06
  66    3.7192413807495e-06
  67    2.8601258283145e-06
  68    -3.9055298517902e-06
  69    -0.0052093743303354
  70    -0.0037402203442698
  71    -0.00065458109084141
  72    -0.0010644252097613
  73    0.00024000126640804
  74    -0.0077354050551931
  75    -0.0023034549287696
  76    0.0016432350210045
  77    -0.0072887400637818
  78    -0.0025800880374918
  79    0.00079292108226072
  80    -0.0029650977743489
  81    -0.0021414465323161
  82    0.0002437551054463
  83    -0.00058222999115946
  84    -0.00030618436887681
  85    0.0006685365883932
  86    -7.3703494949806e-05
  87    0.0016130245443171
  88    -0.0016468601513125
  89    -0.0011247853139896
  90    0.0013144318131027
  91    -0.001737008528643
  92    0.00053563689842498
  93    -0.00021239665216962
  94    -0.00012351836371341
  95    8.9076433545348e-05
  96    -0.00059949940403251
  97    -0.00011921006532909
  98    0.00022544862289303
  99    0.0022764152135134
 100      0.01029928614965
 101    0.0023357966217046
 102    0.0018487356862213
 103    0.0019361293342116
 104    0.0014582429524966
 105    -0.0045015957851258
 106    0.00077860992904971
 107    0.0035819330303996
 108    -0.0054554815713044
 109    -0.0005525961819017
 110    0.0010501674227008
 111    -0.0055210818672745
 112    -0.00010983871853689
 113    0.00039618727722364
 114    -0.0003925912203646
 115    -0.0002362479931221
 116    0.00081211680188043
 117    0.0010033885232003
 118    0.0010157238093514
 119    -0.0012838398883567
 120    5.6660674464183e-05
 121     0.001986408339921
 122    0.00053686030212844
 123    0.00014082385222232
 124    -0.00024700747359432
 125    0.00011766030631112
 126    0.00047092201587179
 127    -0.00011518417561505
 128    -0.00023153235139546
 129    -0.0026103175602201
 130     0.017385285625603
 131    0.0033666301297729
 132    0.0085433966645146
 133    -0.0019627845688279
 134    -0.00033463795356719
 135    -0.00062053850321358
 136    -0.0043641447829748
 137    -0.00096423097228501
 138    0.00029242536640572
 139    -0.0032608325269913
 140    -0.0015204440608014
 141    -0.00093347905961361
 142    -0.00016404873294529
 143    0.00023893790998513
 144    0.00044070785135391
 145    -0.00065791966170502
 146    -0.00043869842824262
 147    0.00071997948359442
 148    0.00061297774217352
 149    0.00099746294302067
 150    -0.0010749933518019
 151    -0.00080502037683144
 152    0.00043387749589578
 153    0.0001741491278179
 154    6.4974860752347e-05
 155    -0.00026737690765106
 156    -0.00037737271024887
 157    0.00027652960114157
 158    0.00027200596436801
 159     0.010920793937109
 160    0.0028616655742518
 161    0.0010433254360086
 162    0.0042700052188191
 163    0.0063841570391124
 164    0.0013568627730094
 165    0.0040607117493607
 166    0.0075317516934251
 167    -0.00024818375052047
 168    0.0067715521054765
 169    0.0024961893345655
 170    -0.0019701959168996
 171    0.0052924105312245
 172    0.00025043809694315
 173    -0.00012841549238878
 174    0.00028937361634016
 175    0.0005693726193358
 176    -0.0008276189546686
 177    0.0015397884552406
 178    -0.00035127663162174
 179    0.00075321651751974
 180    0.0014581329501278
 181    -0.0010054659689036
 182    0.00036056147802087
 183    -0.00011367748310869
 184    0.00010935844011213
 185    0.00052793251422526
 186    3.0560411915204e-05
 187    -0.00022450970337917
 188    -4.2151435641475e-05
 189    -0.00017004111824008
 190    -0.0089909537055519
 191    -0.0015064846738268
 192    -0.0026083981788638
 193    -0.0080757140159569
 194    0.0037714544891932
 195    0.0030969580247431
 196    -0.0078835724048459
 197    0.0038306584215508
 198    0.0051537905908795
 199    -0.0037692268873626
 200    0.0010096077995811
 201    0.0046218355304022
 202    0.00049340401154829
 203    -0.00032875960872772
 204    0.00038857145836551
 205    0.00019828847197733
 206    0.00012922774388232
 207    0.0021964737721013
 208    -0.0012924340661473
 209    0.00096256907997755
 210    -0.00086083680104132
 211    0.00099653299955953
 212    0.00044152068360083
 213    -8.1850319850299e-05
 214    3.1385560824274e-05
 215    -0.00043974857485593
 216    0.0004637085679038
 217    0.00027913878368343
 218    -0.00023092736235153
 219    0.0021413964555566
 220    0.0063073435725678
 221    -0.0010033993202115
 222     0.000278751386108
 223    0.00030120708961916
 224    0.00010228064834817
 225    0.0011311034933675
 226    0.0013361059143847
 227    -0.00024466887600982
 228    -0.00011261724500478
 229    8.4462396478518e-05
 230    0.0001201280060799
 231    -5.0401631227934e-05
 232    0.00017927035640797
 233    0.00064362616366937
 234    0.0028066499715128
 235    -0.0020455595588628
 236    -0.00015731408333018
 237    0.0002153701224337
 238    2.506653260574e-05
 239    -0.00085908965748641
 240    0.0011986155527168
 241    -0.00040267693157433
 242    -0.00011364794326988
 243    -5.2837689262411e-05
 244    7.4370800695913e-05
 245    -2.0286411779322e-05
 246    -0.00013876942157086
 247    0.00073035559125006
 248    0.0014638191412294
 249    -0.0021739342485833
 250    -0.00025316119969353
 251    -6.2093851809568e-05
 252    0.00011138684449496
 253    -0.0009825974468064
 254    -0.00024313347211989
 255    -3.79200779347e-05
 256    -8.7116624019591e-05
 257    -0.00012777883301201
 258    -3.7361423884835e-05
 259    0.00010193555637038
 260    4.2192823863348e-05
 261    0.00013428589396982
 262    0.0015044591941238
 263    -0.0020351218554133
 264    6.7877027292032e-05
 265    -0.0001788415779752
 266    0.00024356060643523
 267    0.00020850055923909
 268    -0.0009574139311876
 269    0.0002653653827789
 270    -7.1467900082149e-05
 271    -2.9104178896483e-06
 272    -0.00020263127148883
 273    -9.7290133657445e-05
 274    -1.3127600356479e-05
 275    0.0032583106553707
 276     0.007858824473701
 277    -8.4513249249203e-05
 278    0.00044710605021822
 279    -0.00014253172053923
 280    0.0002488583309501
 281    0.0014773762329324
 282    -0.0004890349017486
 283    6.0043830752138e-05
 284    -9.6948788554397e-05
 285    0.00018768188276975
 286    -4.9791336319105e-05
 287    0.00014320295334616
 288    -0.0001225178343602
 289    -0.0018185059946706
 290    0.0049933101144935
 291    0.00087559200875622
 292    0.0044235246851425
 293    -0.001364057712048
 294    0.0028371591184217
 295    -0.0028498455794761
 296    -0.0004687353500248
 297    0.0049228958832104
 298    -0.0050044446328468
 299    0.0020509896208042
 300    0.0035261814770589
 301    -0.0034286536125292
 302    0.00015006133352111
 303    0.00036308237124827
 304    0.00033471534900972
 305    -9.3440272672142e-05
 306    -0.00090842370741493
 307    0.0010431531174937
 308    0.00051836124667499
 309    0.00042273242842324
 310    -3.0473332615572e-05
 311    -0.001395291893836
 312    -0.00036958286952471
 313    -0.0001183834788691
 314    -0.0002206242804322
 315    -0.00011913749282883
 316    0.0005155420011006
 317    0.00011216298245987
 318    -0.00012174189540539
 319     0.001765115117778
 320    0.0079544471524247
 321    0.0016828594258247
 322    0.0032782507964924
 323    -0.00066810370092402
 324    -0.0026081120806298
 325    -0.0016653455389704
 326    0.00091954192593681
 327    -0.0036323066807555
 328    -0.0033745137611055
 329    0.0016549763374712
 330    -0.00087941524713038
 331    -0.0019896299026324
 332    5.3511199543307e-05
 333    0.00059709674959637
 334    4.2341971949691e-05
 335    -0.00071531028578028
 336    0.00010329775958817
 337    0.0010621450518195
 338    0.0010381678060719
 339    0.00015018746808533
 340    -0.0012009642056824
 341    0.00036452620668917
 342    -0.00041175616732769
 343    -0.00024166169968993
 344    0.0001066888685553
 345    0.00049434701920975
 346    -0.00021916607437089
 347    -0.0001676828537498
 348    0.00011862510026652
 349    -0.0089908358142959
 350    -0.0034427774876524
 351    -0.00082696544898867
 352    -0.0041776977124313
 353    -0.001222430652587
 354    0.0020830551112724
 355    0.0025653521961132
 356    -0.0012461891209488
 357    0.00012136577078135
 358    0.0028808233821402
 359    0.00055307594033408
 360    -0.00049280074937198
 361     0.002944437931186
 362    0.00020192526595782
 363    0.00023892646049067
 364    -0.00075811728566459
 365    0.00061888148630959
 366    0.00030239977228452
 367    0.0014051783059068
 368    0.00042838398274813
 369    -0.0017094823178303
 370    0.0020710575599863
 371    0.00035502796521885
 372    -0.00051336228872998
 373    -1.0864081545084e-05
 374    0.00037959563530361
 375    -0.00059898814212726
 376    -9.6161612356139e-05
 377    0.00014471771770564
 378    0.00012652049883918
 379    -0.0069357936392937
 380    -0.0061317411853802
 381    -0.0011302895957646
 382    -0.0047582241407044
 383    0.0057111498017506
 384    0.0039048689641773
 385    0.0038115930271143
 386    0.0044805084710011
 387    0.0038958123551902
 388    0.0047790734872542
 389    0.0020645781182795
 390    0.0017392191516482
 391    0.0041098594819213
 392    0.00022558104832567
 393    -0.00079931198508877
 394    -0.00017209464882612
 395    -8.7468071837649e-05
 396    -0.00026400971590403
 397    0.0014593597055408
 398    -0.0019865006760315
 399    -0.00048172538499013
 400    -0.0014505969198719
 401    -0.0012513320949397
 402    -0.000569380938624
 403    0.0003428179000708
 404    7.1092808054348e-05
 405    0.00054200610817471
 406    0.00035723646204575
 407    -0.00014106484608101
 408    -0.00018694705290697
 409    0.0031237502611609
 410    -0.0063270966058108
 411    -0.0008759592431843
 412    -0.0054577761437276
 413    -0.00046946731919008
 414    -0.0045859251630962
 415    0.00044658084047651
 416    -0.0017829795684802
 417    -0.0037868033609418
 418    -3.4642943360874e-05
 419    0.00030578357336183
 420    -0.0011572437498883
 421    0.00035203737435795
 422    0.00032356827173045
 423    -0.00014930015730729
 424    0.00069564920442299
 425    0.00056374018232661
 426    0.00024147524654028
 427    0.0016047678785243
 428    -0.00043234680987319
 429    0.0015333966485008
 430    0.0010982610337125
 431     0.001414434199541
 432    -0.00046946770132105
 433    0.00019774486267214
 434    -0.00020282386701689
 435    -0.00030627462514685
 436    -0.00054348142756931
 437    0.00014443468412979
 438    0.0002036089964337
 439    -0.0013977897841098
 440    -0.0014275059642303
 441    -0.0026613734777414
 442    8.6271123777769e-06
 443    7.5029980933155e-05
 444    -0.00022268784424315
 445    0.00030734984099294
 446    0.00058821951318687
 447    -0.00026431722078569
 448    -7.1918831065465e-05
 449    -0.00010403473227247
 450    -0.00016160143064412
 451    -3.4525466639671e-05
 452    6.6722483274453e-05
 453    0.00025319031249666
 454    0.0008903816059734
 455    -0.0024932727643901
 456    0.00019002336383823
 457    -9.622357055778e-05
 458    -0.00019943352175093
 459    0.00071457279542594
 460    -0.000324637720034
 461    -0.00012283316989568
 462    -8.8316708448188e-05
 463    -0.00015006794659014
 464    5.6557056791896e-05
 465    6.4476360766316e-05
 466    -5.9625999603571e-05
 467    -0.00057114849957017
 468    0.0020218690975526
 469    -0.0018862809767995
 470    1.7750587311601e-05
 471    -0.0001829625705563
 472    -0.00011248295629714
 473    1.1889592847089e-05
 474    -0.0014210295097252
 475    0.00023054969389008
 476    -0.00010641027560883
 477    1.1543670508355e-05
 478    0.00013337331054041
 479    -0.00012597613619999
 480    -3.2058224703866e-05
 481    0.0021946200403971
 482    0.0067087448582645
 483    3.020778602315e-06
 484    -0.00042139606496716
 485    -9.0656590971185e-05
 486    -8.2240538860056e-05
 487    -0.0017999456530319
 488    -0.00048024853809388
 489    0.00037389518707162
 490    -0.00013521384364348
 491    0.00011504828735953
 492    3.7815526578668e-05
 493    0.00017293239043411
 494    9.6810891297819e-05
 495    -1.4144358299014e-05
 496    0.0027924896664159
 497    -0.0010620432494601
 498    -0.00013108513689692
 499    0.00014411275916613
 500    -0.00015623570938315
 501    -0.00089838924764496
 502    0.0010470689326089
 503    0.00012268497204363
 504    -9.7395883818972e-05
 505    9.6647336583554e-05
 506    -0.0001141414022053
 507    -4.0344636965105e-05
 508    -0.0001303681639576
 Sym= A
 Ene=               1
 Spin= Alpha
 Occup=    1.00000
   1    0.0062558304257955
   2     0.038300988884948
   3     0.013402334553699
   4    0.0022305833771523
   5    0.0012000612457715
   6    -0.00051997021880848
   7    -0.00032378202406239
   8     0.021604364197367
   9     0.028058757121665
  10    -0.0038997083459055
  11      0.75017236924354
  12      0.26787265781105
  13     0.014658500285578
  14      0.13449633379152
  15     0.035786635023964
  16    -0.0023275116042272
  17     -0.18342533657609
  18    -0.051771745644492
  19    0.0042599237493658
  20    -0.0067377820130271
  21    -0.002874827410231
  22    -0.00041738056878102
  23    -0.030521594372331
  24    -0.0094812062776226
  25    0.00012491641495229
  26    0.0091258491232578
  27     0.012025211693184
  28    -0.003206496623712
  29    0.00093161809720359
  30    0.00059218580931531
  31    1.3414629594217e-06
  32    0.0017988184072221
  33    -0.00054299092129319
  34    0.00031815582999804
  35    -0.00031319322389075
  36    1.4355240071759e-05
  37     0.000346464777118
  38    -0.00010751373909895
  39    0.00014169440812859
  40    -0.0001529246932236
  41    6.2584135753097e-05
  42    -0.00031012898215747
  43    0.00031032254131133
  44    -0.00013360563355846
  45    0.00043487724491075
  46    0.00015094266275715
  47    -0.0023488073533305
  48    -0.00082263741103631
  49    -2.5638122995549e-05
  50    -2.1927479533908e-07
  51    8.1325480241771e-06
  52    2.7496913857925e-05
  53    0.00013534357977947
  54    -0.0083371343111883
  55    -0.0026825691795557
  56    -4.6557589665474e-05
  57    -5.2578041704731e-05
  58    1.0707669602881e-05
  59    5.433479544505e-05
  60    6.8793002239639e-05
  61    5.3159291112422e-05
  62    -2.0217281503352e-05
  63    1.5956793099753e-07
  64    -6.8015839713756e-06
  65    6.5936511000709e-07
  66    1.3898694520971e-05
  67    -4.5311891320496e-06
  68    -3.4663634715553e-05
  69     -0.01349541324315
  70     0.033473417443836
  71    0.0040678734001862
  72      0.04971680111103
  73    0.0016786405191666
  74     0.011463208259143
  75     0.067195287544457
  76    1.1195085531809e-05
  77    0.0098313018700698
  78     0.097467988974842
  79     0.015952497352412
  80    0.0070093821908252
  81     0.084702325176569
  82    0.00049023699512215
  83    -0.0023571825354361
  84    0.0038699634724392
  85    -0.0008551509241083
  86    -0.00065388928817005
  87    0.0016357615856457
  88    -0.0028448596613087
  89     0.011196929383727
  90    -0.0028179575958924
  91    0.0045945973937201
  92    -0.001370461605509
  93    0.00029996458063705
  94    0.00083114205277677
  95    -0.0015746543719172
  96    -0.00061271368760774
  97    0.00099417414835462
  98    -0.00057112812971948
  99    0.0035077982195965
 100    -0.0057633171905001
 101    -9.7920096378051e-05
 102     -0.02151004683307
 103    -0.0049208151875606
 104    -0.0060234199542938
 105    -0.030742659706169
 106    -0.0060628232777325
 107    -0.0051310242750643
 108    -0.044444642252202
 109     0.014313712240844
 110    0.0024241975843545
 111      -0.0381988169694
 112    -0.00053698031145914
 113    -0.0046514855223234
 114    -0.0044745124110794
 115    0.0014019291566388
 116    -0.00058211245223583
 117    -0.00099697648980183
 118    -0.0090256801929463
 119    -0.010695312162871
 120    0.0025632744280786
 121    0.0018273834583976
 122    0.00064514318040656
 123    -2.8705502221332e-05
 124    -0.00058100405835912
 125    0.0024108158748228
 126    -0.00086817015001522
 127    0.00018854186200956
 128    0.00047893866150878
 129    0.0068772548051131
 130    -0.026124533919786
 131    -0.0023625342850892
 132    -0.057850149322628
 133      0.01007806126988
 134    0.0031129292806877
 135    -0.087794537752154
 136    0.0071198825459013
 137     0.002029041821847
 138     -0.12701077046031
 139     0.018139959901214
 140    0.0048474952948054
 141     -0.10968883039192
 142    -0.001170624564051
 143    0.0021991346301262
 144    0.00095771617515084
 145    0.00044382113912215
 146    0.0002838079664238
 147    -0.0027849133807207
 148    0.0089145967836511
 149    0.0034041805810474
 150    -0.0050188539316338
 151    -0.0035679706575416
 152    0.0018054956555566
 153    0.0010753947940677
 154    0.00038174753407764
 155    0.00021118563109297
 156    3.2706809863193e-05
 157    -0.00066678353773392
 158    -0.00090438615064084
 159    0.00081359296647745
 160    -0.0038046369993575
 161    -1.5420137756201e-05
 162    -0.017813849065842
 163    -0.0083746634551526
 164    0.0014619813408145
 165    -0.025267082540235
 166    -0.0088210251027953
 167    0.00040141421905214
 168    -0.036634568807086
 169     0.013824244547959
 170    0.0056186661877723
 171    -0.031463206292262
 172    -0.00045033425660864
 173    -0.0065048709096684
 174    0.0006912624999117
 175    -0.00010009945725914
 176    0.0015900331863455
 177    -0.00085373466963082
 178    -0.013898032038452
 179    0.0025395533212154
 180    0.0020244797871022
 181    0.0018905532983111
 182    0.00053184021119495
 183    -0.00036402947993958
 184    0.00030183622599765
 185    -7.9592210821954e-05
 186    0.0026398637706255
 187    0.00037083271539821
 188    0.00026926378529606
 189     0.002821714306774
 190     0.039395936974378
 191    0.0058375450610144
 192     0.056714233188385
 193    0.0069015784470119
 194    -0.0071717363564992
 195     0.070451476597021
 196    0.0036364100642194
 197    -0.0063548255189459
 198      0.10211744562429
 199     0.016798209815097
 200    0.0032673145967976
 201     0.088895052237556
 202    0.00040845850674383
 203    0.00061888272619874
 204    -0.0042232452692095
 205    -0.00065820537935617
 206    -0.00064038508830298
 207    0.0013433368666458
 208     0.004794788596601
 209    -0.010078179762846
 210     0.004343029368702
 211    -0.0045515076094808
 212     -0.00141217789572
 213    0.00084447595760095
 214    -0.0005118711660748
 215    -0.00095305661710346
 216    -0.001192213918589
 217    -0.00094542768001956
 218    0.00093596315114385
 219    -0.00050460033077419
 220    -0.014490010386031
 221    -0.0090488700971622
 222    -0.0001192360865697
 223    -0.00015154096383601
 224    0.0018375992553732
 225    -0.0034062202104666
 226    -0.004460239022414
 227    0.0056283020142333
 228    0.00023190277777491
 229    0.00035856284064303
 230    0.00070686221961852
 231    0.00012381188544281
 232    -0.00040522375117981
 233    0.0004466802430306
 234    0.0063700090300534
 235    0.0033535508026815
 236    -7.1674661867826e-05
 237    9.6882218013402e-05
 238    -0.00080821699857667
 239     -0.00160027825437
 240    0.0018202041245187
 241    -0.0025019652020454
 242    -8.9839881950395e-05
 243    3.6506578251872e-05
 244    -0.00039512016786062
 245    -5.7164226696414e-05
 246    -0.00014858879001498
 247    0.0025554472408102
 248     0.019725570154937
 249     0.011545255781484
 250    -0.00037797789225961
 251    -0.00013434766137737
 252    -0.0023691598931872
 253    -0.0065800780536496
 254    -0.0021835368119686
 255    -0.0073296173535371
 256    -0.00029796006823799
 257    0.00095240629849082
 258    0.00032786178511848
 259    0.00040094335691924
 260    0.00030566949251628
 261    0.00045364892675831
 262    0.0053160681844964
 263     0.003152785495704
 264    -5.8670114273575e-06
 265    -7.6562976412161e-05
 266    -0.00070024984783479
 267    -0.00026756524947883
 268    -0.0020394864520789
 269    -0.0019519007791828
 270    -6.8133825737671e-05
 271    -0.00019866497436055
 272    0.00028417009376535
 273    -0.00013335536009968
 274    8.7048569557166e-06
 275    0.0018577126561365
 276    -0.012845217882027
 277    -0.0080622400927335
 278    -2.2837345347501e-05
 279    5.0144859020696e-06
 280    0.0019177369936063
 281    -0.0057697029495759
 282    0.0016968211745623
 283    0.0058748150436463
 284    0.00022037460904051
 285    0.00071413134889303
 286    -0.00035911588594064
 287    -0.00034174378387827
 288    0.00023939691029979
 289    -0.0067081912108736
 290     0.031311457087129
 291    0.0040112706164126
 292     0.046341533588503
 293    0.0035318266668301
 294    0.0099074870279917
 295    -0.067432945298571
 296    0.0023762705005165
 297    0.0081297187055248
 298    -0.097584844778047
 299     0.015108383948266
 300    0.0068202164491885
 301    -0.083833336525525
 302    0.00050724783314986
 303    0.0018587250849815
 304    -0.0036230202028725
 305    -0.00055943023841767
 306    -0.0005663381095774
 307    0.0018288800293611
 308     0.001950139056525
 309    -0.010606436844608
 310    -0.0022918932340411
 311    0.0042568247986168
 312     0.001443673030738
 313    0.00028345058424292
 314    0.00080853926030069
 315    0.0013381659401689
 316    0.00055748382123803
 317    0.0009728410625469
 318    -0.00053589679104034
 319    -0.023931497564972
 320     0.032912829340943
 321    0.0036547011176977
 322      0.04806930441128
 323    0.0065006159562162
 324    -0.0059181274632968
 325    -0.065995878697813
 326    0.0039882135840467
 327    -0.0051306756486553
 328    -0.095515320191032
 329     0.015341942447099
 330    0.0037612698361962
 331    -0.081925105026438
 332    0.00046798967959791
 333    -0.00052288334753113
 334    0.0041567032448886
 335    -0.00060534567187891
 336    -0.00059381491541416
 337    0.0016401786171653
 338    -0.0042014728900755
 339    0.0098171289080839
 340    0.0036184647392437
 341    -0.0037695305088109
 342     0.001372774209113
 343    0.0006978468524837
 344    -0.00049690479923264
 345    0.00096462540731645
 346    0.0011486859280416
 347    -0.00083222590695161
 348    0.00076530047926742
 349    0.0023247479291437
 350    -0.0084131297286459
 351    -0.00085534168427116
 352    -0.018494719350997
 353    -0.0086546558223341
 354    0.0011942158424802
 355     0.024608811371651
 356    -0.0093126821881879
 357    0.00025125334009758
 358     0.035799479716231
 359     0.011810457273253
 360    0.0045823623182991
 361     0.031768623012748
 362    -0.00033804409860672
 363    0.0059731661775825
 364    -0.00054869109160906
 365    -5.2423659612859e-05
 366    0.0015195232596257
 367    -0.00086143422228794
 368     0.012830176076748
 369    -0.0025085343489999
 370    0.0021310687180555
 371    0.0017668067215157
 372    -0.00044612094219278
 373    -0.00033656476562577
 374    0.00032638614980777
 375    9.4308159871559e-05
 376    -0.0024051910830466
 377    0.00033802463408948
 378    0.00030910036699268
 379    -0.0012624072110832
 380    -0.025010193611224
 381    -0.0026372812952921
 382    -0.056951915643646
 383     0.010530316013508
 384    0.0020461463932715
 385     0.079404146562762
 386     0.008538313175408
 387    0.0011282784439399
 388      0.11504329470577
 389     0.018079604240771
 390    0.0059577815478071
 391      0.10108365210363
 392    -0.0010136140463246
 393    -0.0018647801900987
 394    -0.00053363990607135
 395    0.00041082937750048
 396    0.00047970342978379
 397    -0.0025801184562722
 398    -0.0080646606361389
 399    -0.0024567915312203
 400    -0.0045545754551577
 401    -0.0031532479774606
 402    -0.0015596549304588
 403    0.00088556457874246
 404    0.00029786858200631
 405    -0.00016480350336882
 406    -0.00017844968072693
 407    -0.00064380311818131
 408    -0.00087518079071395
 409     0.016354173256431
 410    0.0017550282405232
 411    0.0017145891825585
 412    -0.012420902212894
 413    -0.0047992560050302
 414    -0.0070403456827443
 415     0.022622787729462
 416    -0.0053217351979687
 417    -0.007032499241179
 418     0.032886861331056
 419     0.012944034029244
 420    0.0028758583260395
 421     0.029546416502841
 422    -0.00056141027917083
 423    0.0046418590096697
 424    0.0039212781799971
 425    0.0013375705665556
 426    -0.0006802537586093
 427    -0.0012102944769509
 428    0.0091535640936188
 429    0.0093776719109893
 430    0.0020740715532676
 431    0.00084859320555415
 432    -0.00039785221086692
 433    -0.00013528462649776
 434    -0.00040678026668188
 435    -0.0022481254256074
 436    0.00086122012436731
 437    -2.6450578417343e-05
 438    0.00037014709652402
 439    -0.00085293184827971
 440    -0.014167260026224
 441    -0.0092965981427803
 442    -0.00011778587997838
 443    -0.000205467319442
 444    -0.0018196713135103
 445    -0.0032150035546366
 446    -0.0042758056115435
 447    -0.0056571416209862
 448    0.00021503729335456
 449    -0.00035089746437981
 450    -0.00070014776494244
 451    0.00014434124190215
 452    -0.00038190670254884
 453    0.0009996412570628
 454    -0.011681952357846
 455    -0.0083671254435085
 456    -4.2076364701678e-05
 457    2.8310757886468e-05
 458    -0.0017963361948206
 459    -0.0050132083140289
 460    0.0016056327732105
 461    -0.0055371526664741
 462    0.0002054414778595
 463    -0.0006637346781852
 464    0.00033816649717177
 465    -0.00028623128436377
 466    0.00024518863824808
 467    -0.00068209598358569
 468    0.0036269369182168
 469    0.0028462353858002
 470    -2.4306126834795e-05
 471    3.1204289371895e-05
 472    0.00068556219124579
 473    -0.00033734841816537
 474    -0.0018388675465491
 475     0.002059047982545
 476    -6.2446065891941e-05
 477    0.00018495764606497
 478    -0.00029081189143047
 479    -0.00010562108752367
 480    1.9351922644977e-05
 481    0.0029171172508318
 482     0.019222661567558
 483     0.011803915916636
 484    -0.00037468190217406
 485    -0.00013848684983426
 486    0.0022025878694502
 487    -0.0060713699330749
 488    -0.0019967566359699
 489    0.0067272436334811
 490    -0.00026584291874264
 491    -0.00089499020420779
 492    -0.00029611759795652
 493    0.00037156118631964
 494    0.00028001323629096
 495    0.0025992679789165
 496    0.0072261499866002
 497    0.0043618639494301
 498    -0.00015629936832438
 499    0.00019251355537274
 500    0.00065254390300542
 501    -0.0012986669157113
 502    0.0012604900555778
 503    0.0019246154285944
 504    -8.5242795275612e-05
 505    -1.1687073558901e-05
 506    0.00034609855769946
 507    -3.1790334049259e-05
 508    -0.00012545913906962
 Sym= A
 Ene=               2
 Spin= Alpha
 Occup=    1.00000
   1    -0.0052763820909514
   2    -0.020304268643077
   3    -0.035096886875144
   4    0.0025833284254431
   5    -0.0008935509343185
   6    0.00086132678735987
   7    0.00041849349747987
   8    0.0065233712523972
   9    -0.00030542356561689
  10    0.0072091216139897
  11     -0.25636345148836
  12      0.76145830502887
  13    -0.0025602996624759
  14    -0.044021835258568
  15      0.13613973868405
  16    -0.0046311667370589
  17     0.060505561892833
  18     -0.18435002012643
  19    0.0051168201594471
  20    0.0022507352395227
  21    -0.0064937744942604
  22    1.0504839913583e-05
  23     0.010103072854693
  24    -0.029882127931894
  25    -1.9673204714368e-05
  26    -0.014287287111919
  27    -0.004323958815321
  28    0.0010184461080921
  29    0.0015623323181457
  30    0.00088499761646618
  31    0.00040530881952324
  32    -0.00065455561583252
  33    1.1446866233868e-05
  34    7.1437710735685e-05
  35    0.00017132835294947
  36    6.5004043296089e-05
  37    -0.00010912633938119
  38    -2.5297240032092e-05
  39    7.8560115355115e-05
  40    0.00015496255997505
  41    0.00018673787230195
  42    -0.00063575001917036
  43    0.0012659104183759
  44    0.00019626190342033
  45    -0.00012500292413033
  46    -5.7392440065894e-06
  47    0.0007921668887657
  48    -0.0023630121268392
  49    2.3565785197628e-06
  50    1.032477106081e-06
  51    1.1795328231504e-05
  52    1.1085928646117e-05
  53    1.4612947887851e-05
  54     0.002854095738702
  55    -0.008369138568255
  56    1.0555376499792e-05
  57    5.488621214478e-05
  58    -2.4069869072062e-05
  59    -2.9691481349719e-05
  60    -0.00012700477436876
  61    -1.6657023055562e-05
  62    3.3070685724093e-06
  63    -4.6978934517976e-07
  64    -5.0325875298749e-07
  65    2.6053469166334e-06
  66    -1.0612150743839e-06
  67    -2.569200137858e-05
  68    1.1443033949492e-05
  69     0.010435449358704
  70     0.014812282587621
  71    0.0020527826121247
  72     0.031450998127461
  73     0.010027886804482
  74    0.00017671938405226
  75     0.046860724230009
  76    0.0094637577407673
  77    -0.0012917059064173
  78      0.06781285034586
  79    -0.0030163753872132
  80     0.015057410429526
  81     0.059247222059826
  82    0.00062939078296285
  83    0.0050078428725597
  84    -0.0022135564729337
  85    0.0014188944860018
  86    0.00012113307290141
  87    0.0015965827970397
  88     0.012035184776699
  89    -0.0027749701648202
  90    0.00052935821057719
  91    0.0035734106339118
  92    -0.00089757730666062
  93    0.00057998477629423
  94    0.00025723426159391
  95    0.0020844224147445
  96    0.00053029281526928
  97    0.00068852167407009
  98    7.6091129462104e-05
  99      0.02041519174515
 100     0.032629893809638
 101    0.0050088255900007
 102     0.060368844549198
 103    -0.0074056676625918
 104    0.0054581812587646
 105     0.078975399744082
 106    -0.0057603140166978
 107    0.0029214368137387
 108      0.11443670527322
 109    -0.0074511464701394
 110     0.016466039716378
 111     0.099567001702898
 112    0.00083189197267812
 113    -0.0026982421486784
 114    0.00051775752056557
 115    0.00061151838615224
 116    0.00025679003759338
 117    0.0019685080594629
 118    -0.0082617439130174
 119    0.0045394160805331
 120    -0.001321968423746
 121    -0.006180723093672
 122    -0.001592923085543
 123    -0.00067716521621408
 124    0.00075191753413685
 125    0.00078527937709387
 126    -3.3198071547945e-05
 127    -0.0012300824208175
 128    -0.00024629434524442
 129    1.727680604688e-05
 130    -0.0035671691685091
 131    -0.00071449285672084
 132    -0.0017203896643876
 133    0.0039842083860127
 134    -0.0084308689336295
 135     0.001086829839891
 136    0.0044223619240911
 137    -0.0087295915773692
 138    0.0015424402869025
 139    -0.0035130953368252
 140     0.013279051650167
 141    0.0014076126409295
 142    0.00015799114578084
 143     0.002021730787244
 144    -0.0062088067983573
 145    -0.0010234103043033
 146    0.0013132650900986
 147    0.00023903723583525
 148    0.0044392012769605
 149    -0.013114375991074
 150    -0.0012551150215952
 151    0.0015817495682046
 152    2.6888129914455e-05
 153    0.00010764704882934
 154    -0.00038234729744438
 155    -0.0015626641256007
 156    0.0020991299183644
 157    0.00028194089041597
 158    -0.00028919783784571
 159    -0.011667756327875
 160    -0.038043272093749
 161    -0.0057059201469517
 162    -0.057050726157419
 163    0.0025022352720582
 164     0.011787103109551
 165    -0.079265635877473
 166    0.0025162765583129
 167    0.0088161335311313
 168     -0.11478653544487
 169    -0.0051027124558132
 170     0.017195446675895
 171     -0.09896126161824
 172    -0.00059691373795213
 173    0.0021385324259073
 174    0.0021834292660806
 175    -0.00039253324867607
 176    -0.00050505888888973
 177    -0.0019349437874163
 178     0.004552973916385
 179    0.0087842475200108
 180    0.0058587078536677
 181    -0.00054329288944737
 182    0.0016462390117896
 183    0.00012817387875919
 184    0.0010002142873764
 185    -0.00012321377707263
 186    -0.00087050192202381
 187    -9.0571647054326e-05
 188    0.0013652001101615
 189     0.012048360568593
 190    -0.029933617817827
 191    -0.0039308593465292
 192    -0.040407176156804
 193    -0.0076368329709329
 194    -0.0043713052494549
 195    -0.050947548258865
 196    -0.0052189624117177
 197    -0.0053670236098123
 198    -0.073754667076719
 199    -0.0066221168153191
 200     0.013359904060174
 201    -0.063562747078163
 202    -0.00022883967723162
 203    -0.0029825594198415
 204    -0.0045167373080437
 205    -0.0006873000658557
 206    -0.001068895448781
 207    -0.00081379924919838
 208    -0.0089044100313087
 209    -0.0087298641007383
 210    -0.0045678507629194
 211    0.0013367333614086
 212    0.0010746587533632
 213    -0.00076147826187675
 214    -9.3957313313453e-05
 215    -0.0011922010590226
 216    -0.0017153478373523
 217    0.00028455943415505
 218    -0.00099423002722159
 219    -0.0014973982782239
 220    -0.011026704888044
 221    -0.006802052510017
 222    -8.3141975827201e-05
 223    -0.00017096091730363
 224     0.001304085540285
 225    -0.0020101874714055
 226    -0.0032258832154613
 227    0.0038418476951385
 228    0.00015203792569366
 229    0.00045051875021203
 230    0.00033318155509249
 231    0.00011364972074931
 232    -0.00027339954183172
 233    -2.8747086180219e-05
 234     -0.01617412645607
 235    -0.010388931542741
 236    0.00010008623454831
 237    -0.00012709852910434
 238    0.0021565174310872
 239    0.0037581616256779
 240    -0.0053697500720759
 241    0.0066624037697085
 242    0.00022489257952044
 243    -0.00060451324659376
 244    0.00071568009804172
 245    0.00014428863450263
 246    0.00043646780248424
 247    -5.6228535759199e-05
 248    7.7315702948015e-05
 249    -0.00028436295993909
 250    -3.9879407043362e-06
 251    -2.9935880608196e-05
 252    3.0227157587032e-05
 253    0.00014163916436223
 254    -0.00032445124318221
 255    2.9335533657783e-05
 256    3.548658703238e-06
 257    5.8755163078528e-05
 258    -0.00020273127440247
 259    7.9559580034563e-06
 260    1.4541691565186e-05
 261    0.00066150168759584
 262     0.017084570469456
 263     0.010640220221493
 264    -4.4675551276768e-06
 265    -0.00024630378481056
 266    -0.0021340110886817
 267    6.2034917594096e-05
 268    -0.0066283611231652
 269    -0.0066853509295372
 270    -0.00027753441254511
 271    5.4576939527241e-05
 272    0.00090323984435054
 273    -0.00051485354139895
 274    -6.905198609794e-06
 275    -0.0019435402697169
 276    0.0084493396145893
 277    0.0055812906796253
 278    -4.2962027564445e-05
 279    2.5487808960879e-05
 280    -0.0013571754294206
 281    0.0041311186227135
 282    -0.0015609748797065
 283    -0.0043013697988714
 284    -0.00016141441309623
 285    -0.00059701904471791
 286    2.9869772158651e-05
 287    0.00025310655840611
 288    -0.00016454483629336
 289    -0.0059994372986695
 290     0.021710479264981
 291    0.0026052112758695
 292     0.038079293143107
 293    0.0081327405398024
 294    0.00052475878189888
 295    -0.049892596190804
 296    0.0071569351400237
 297    -0.0011664027337721
 298     -0.07247510937091
 299    -0.0024161690202137
 300     0.014661281405239
 301     -0.06268184537273
 302    0.00047053936440878
 303    -0.0049931845086524
 304    0.0019644027841693
 305    0.0012589127414715
 306    0.0002491720076873
 307     0.001391957370131
 308    -0.012139241141443
 309    0.0021899778981425
 310    0.00034529873535792
 311    0.0041254981535538
 312    0.00099028624908811
 313    0.00062325837581891
 314    0.00033409486024546
 315    -0.0020068642871507
 316    -0.00053314261379351
 317    0.00087657884310926
 318    0.0001109205187992
 319    -0.003693873715657
 320    -0.022729882681958
 321    -0.0032178241199176
 322    -0.036476824829708
 323    -0.0096030018379056
 324    -0.0057120058736745
 325     0.046877183973333
 326    -0.0083031258933501
 327    -0.0068652512795053
 328     0.067981709303158
 329    -0.0074369994102645
 330     0.013046855295066
 331      0.05951301601134
 332    -0.00039250767376804
 333    0.0027785604692384
 334    0.0046232593722892
 335    -0.00065125574161926
 336    -0.0013146831035211
 337    -0.0010526584796649
 338    0.0083830227621461
 339    0.0090619904670108
 340    -0.0039709068564128
 341    0.00066165303217973
 342    -0.00098537823813985
 343    -0.00062795299629552
 344    -9.4473264973425e-05
 345    0.0012171028199864
 346    0.0017703345955808
 347    0.00021657500513428
 348    -0.00085891744436316
 349    -0.00058911462666971
 350    -0.032349480877706
 351    -0.0040968048558349
 352    -0.058116182561743
 353    0.0045268236302729
 354     0.012088135693268
 355     0.077459115420402
 356    0.0050081384613815
 357     0.009351186745177
 358       0.1122514624254
 359    -0.0031642378387551
 360     0.018821997827269
 361     0.098158062855451
 362    -0.00076474453164649
 363    -0.0019550522152252
 364    -0.0020421045597895
 365    -0.00050486320626184
 366    -0.00067761036412453
 367    -0.0019192712207136
 368    -0.0042046479359189
 369    -0.0084219569721034
 370    0.0059083478633418
 371    -0.00089901932562635
 372    -0.001607361203758
 373    9.073893497881e-05
 374    0.00096237034969431
 375    0.00010973713635837
 376    0.00081505419869085
 377    -0.00015115346640557
 378    0.0012342031858367
 379    0.0015685298085777
 380    -0.0023229872019629
 381    -0.00042806211401876
 382    0.00091825448165411
 383    0.0011373010885767
 384    -0.0072691537762412
 385    -0.00045025250371401
 386    0.00077729415702192
 387    -0.0075478862156518
 388    -0.00083404745616924
 389    -0.0055106407942276
 390     0.012235494416503
 391    -0.00018817862428656
 392    8.4036338752997e-05
 393    -0.0019851956254291
 394    0.0061518915996952
 395    -0.00098920026754073
 396    0.0011490687051306
 397    0.00012599576449334
 398    -0.004300322627458
 399     0.013082334046145
 400    -0.0012333280020417
 401    0.0013635048675574
 402    -1.4042286093028e-05
 403    0.0001609194642012
 404    -0.00034847829768258
 405     0.001546249823359
 406    -0.0020768838472997
 407    0.00036001133982833
 408    -0.0002794679210043
 409    -0.0079880844533648
 410     0.024669267433719
 411       0.0022780152404
 412      0.05255658358789
 413    -0.010017415607096
 414    0.0088830035027182
 415    -0.079178283599642
 416    -0.0091838051478989
 417    0.0074404088297997
 418     -0.11473572903463
 419    -0.0075243437720009
 420     0.017629705329343
 421    -0.099280964091132
 422    0.00099425098785678
 423    0.0028919960565185
 424    -0.00049773048526218
 425    0.00068184032254255
 426    0.00048449511999717
 427    0.0026255824760881
 428    0.0084477798898083
 429    -0.0042906946189784
 430    -0.0011517255388057
 431    -0.0052602360592211
 432    0.0016289242112961
 433    -0.00062841739803847
 434    0.00066099757952876
 435    -0.00084477441673392
 436    4.431479995413e-05
 437    -0.0010163069367886
 438    -0.00022574846514733
 439    0.00053174885505041
 440    -0.0091128298944878
 441    -0.0061276706049301
 442    -2.5140522712914e-05
 443    -2.5592687358172e-05
 444    -0.0013664336622868
 445    -0.0020959810272443
 446    -0.0033329256574311
 447    -0.0040807987427617
 448    0.00014032065954724
 449    -0.00048028498761991
 450    -0.00034200375673733
 451    8.7684471611811e-05
 452    -0.00027254149044815
 453    0.00063206968462518
 454     0.010806177384448
 455    0.0066587016054103
 456    0.00014086923187849
 457    -7.5104559373197e-05
 458    0.0012826750899357
 459    0.0037447502074271
 460    -0.0015501717082154
 461    0.0040439312833412
 462    -0.00016895578336469
 463    0.00055146488215038
 464    -1.9759453137458e-05
 465    0.00023445259619653
 466    -0.0001980430147288
 467    0.0021109396175626
 468     0.019139412208527
 469     0.010799973738816
 470    3.1084573126514e-05
 471    -0.00035340584781745
 472    0.0021215157240283
 473    0.00020239670989484
 474    -0.0067158819739422
 475    0.0065103205884792
 476    -0.00026647683623431
 477    -5.3639109972257e-05
 478    -0.00088295490474099
 479    -0.00051444352929179
 480    -2.9886234355888e-05
 481    -0.0014037251397075
 482    -0.0018804032074215
 483    -0.00093632596062501
 484    9.9985068627181e-05
 485    4.7716985321544e-05
 486    -8.6831712453699e-06
 487    0.00016008062657321
 488    -0.00021486301443057
 489    3.8034734230322e-05
 490    8.1670315591344e-06
 491    -6.7278259826737e-05
 492    0.00019892827547272
 493    1.555472403635e-06
 494    -2.7760362575865e-05
 495    -0.0044864846425741
 496    -0.020843505029305
 497    -0.012285986758281
 498    0.00030957770804337
 499    -0.00045324283840576
 500    -0.0021393084999913
 501    0.0036701686768156
 502    -0.0051213609041836
 503    -0.0066326870951132
 504    0.00027820822512297
 505    0.00058894577718659
 506    -0.00070853537058857
 507    0.00015399363424015
 508    0.00047358378675446
 Sym= A
 Ene=               3
 Spin= Alpha
 Occup=    1.00000
   1    -1.9171285425245e-05
   2    -0.00012934416317932
   3    -0.00044711309768867
   4    -0.0018138321667204
   5    0.00045226258161201
   6    -0.00022835311560557
   7    -0.00031046429268649
   8    0.00013691548431621
   9    7.0378618529816e-05
  10    -5.4355529363588e-05
  11    -0.00058477659799001
  12    0.0004789512169819
  13    -0.0015903715337222
  14    0.00015455056230901
  15    0.0017476624364077
  16    -0.0033008707750805
  17    0.00012414613549411
  18    -0.0017064719609948
  19    0.0022930539564315
  20    1.4636566827562e-05
  21    5.9977306971562e-05
  22    -1.9536296489973e-06
  23    0.00018994897001795
  24    -0.00012589122040426
  25    -4.008728841223e-06
  26    0.0057208492581532
  27     0.023114115439072
  28    -0.022934383879251
  29     -0.07965346762752
  30     -0.92109869763616
  31    1.5218734819119e-05
  32    0.0020503527424207
  33    -0.0020484085479058
  34    -0.00090773217812841
  35    -0.010206025005677
  36    9.589183453359e-05
  37    0.00050993779262201
  38    -0.00053423347035713
  39    -0.0010063028907693
  40    -0.011355479681417
  41    -0.00035638112372196
  42    0.00071419222282878
  43    -0.0012509151245428
  44    -0.0075113622487341
  45    -0.088287197382032
  46    -1.6430989684868e-06
  47    7.5708092140735e-07
  48    3.5816827811951e-06
  49    3.442697535338e-06
  50    -7.5396372150297e-06
  51    -0.00035395330321376
  52    -4.9317481616426e-05
  53    -1.534344277199e-05
  54    -3.5455479070302e-07
  55    2.0118920250496e-05
  56    -1.2143406835864e-05
  57    -4.968255320762e-06
  58    -0.0021448538202076
  59    -0.00028031864926609
  60    2.1662275411828e-05
  61    8.899111508624e-05
  62    -0.00010274227035129
  63    -0.00014853583120159
  64    -0.001757207908782
  65    -3.2197450608848e-05
  66    -5.1981860411103e-06
  67    2.6014563071458e-08
  68    -5.8751199832646e-06
  69    0.0011494179669997
  70    0.00052097265479019
  71    0.0025786073097563
  72    -0.071945539928246
  73    -0.0095462927281664
  74    -0.00030769817075492
  75    -0.029899911188056
  76     -0.01349191900323
  77    -0.0020241103741939
  78    -0.048489467315071
  79    -0.029619707920681
  80    -0.027179331018537
  81    -0.044239893700028
  82    -0.0033790684167283
  83    0.0006177342322022
  84    -0.00028016309507489
  85    -0.00033742249614311
  86    -0.00017551747587414
  87    -0.0086635702622831
  88    -0.00064923974757752
  89    -0.0041086174073146
  90     0.001639945904011
  91    -0.0044449534681931
  92    -0.0011864130577886
  93    -0.00035666168730482
  94    -0.0016120303846326
  95    0.00045637862110037
  96    -0.00079479929288593
  97    0.00031443710405248
  98    -8.7411416198328e-06
  99    -0.00080954677314716
 100    -0.0037344459512719
 101    -0.0029790217101685
 102      0.06971310582572
 103    -0.0055789836717852
 104    0.00091768823077542
 105     0.020401502619829
 106    -0.0090447102902482
 107    0.0036698652690792
 108     0.034883144130777
 109    -0.027346221533184
 110     0.028654599809816
 111     0.033127738304855
 112    0.0033546496012775
 113    0.00089988815512995
 114    -3.3139712437893e-05
 115    7.620260978975e-05
 116    -0.00015320597734288
 117    0.0089121081432205
 118    -7.8222720820397e-05
 119    0.0031073044179503
 120    -0.0015445079310507
 121    -0.0037805959647291
 122    0.0014817639547195
 123    -0.00047347231442038
 124    0.0013402462971429
 125    -0.00054566078644631
 126    -0.00076358414790592
 127    0.00047223874841189
 128    6.3559684588716e-05
 129    0.00085952752320143
 130    -0.00069461956835162
 131    0.0017057226752161
 132    -0.053543225531366
 133    8.7295926369529e-05
 134     0.014498371013849
 135    -0.024717690053552
 136    0.0010490273816337
 137     0.019117679102277
 138    -0.039541223786738
 139     0.021401036120972
 140     0.025394999231704
 141    -0.035907645815291
 142    -0.0024444365363819
 143    0.00069531005400267
 144    -0.001969357693152
 145    0.00026235769773524
 146    -0.00043845338721593
 147    -0.0061749359732863
 148    0.0045219724854041
 149    -0.0040530115695198
 150    -0.0035427761955719
 151    -0.001743974569231
 152    -0.00076214187831093
 153    0.0015378198181325
 154    -0.00090552181869073
 155    -0.00094821897006388
 156    0.00021217977319945
 157    0.00026091760451284
 158    1.9158996738508e-05
 159    -0.00042940423672891
 160    0.0015353341533362
 161    -0.00013675237129424
 162    0.0099295494249742
 163     0.017273167602336
 164    -0.0013684229772323
 165    0.0097059974775678
 166      0.02239035767753
 167    -0.0015579155352372
 168     0.014425643309375
 169     0.025857513042328
 170    -0.0044624207302965
 171     0.012280522541819
 172    0.00043460699600685
 173    -0.0042301579808584
 174    -0.00029247482520743
 175    -1.6227562651511e-06
 176    -0.00031413246933731
 177    0.00084440123329653
 178    -0.0098935729839047
 179    -0.0012674416092581
 180    -0.0011736431576169
 181    0.0014429236599513
 182    -5.7359978615102e-05
 183    -0.0017921727084132
 184    -0.00031371147842507
 185    -9.3394155030384e-05
 186    0.0015868258627393
 187    0.00036415215796861
 188    -1.4847751305503e-05
 189    -0.00082538638449711
 190    0.0017419147235274
 191    -0.0012953342098456
 192     0.044770893008615
 193    -0.00063166584470481
 194    -0.015582824359462
 195     0.024951403375675
 196    -0.00033255836813425
 197    -0.020467232424482
 198     0.039011088873709
 199     0.015637262575447
 200    -0.028517656389301
 201     0.034600185038323
 202    0.0020297366466786
 203     0.001325495713671
 204    0.0032571190644969
 205    -0.00015857883543106
 206    -0.00025412686665225
 207    0.0049756764372428
 208    0.0056395823790846
 209    0.0069229047538808
 210    0.0034316421976033
 211    -0.0010890783901898
 212    0.00047733128728792
 213    0.0014742578717939
 214    0.0011450591632976
 215    0.0011987913761837
 216    0.00076123010962028
 217    0.00031303494658668
 218    9.6013599599522e-05
 219    0.0069547857498811
 220     0.015359423432653
 221    0.0018715186533476
 222    0.00020279455975918
 223    0.00050765135315992
 224    -0.001085775707753
 225    0.0007744885602096
 226    0.0019877000170329
 227    -0.0024917465548764
 228    -0.00016833255902244
 229    -0.00025611953757406
 230    -0.00037806902822123
 231    -0.00011402874345118
 232    8.4558971280744e-05
 233    -0.0064803133932067
 234    -0.012987092331245
 235    -0.001273313778236
 236    0.00018406924900175
 237    -0.00040385376715471
 238    0.00087416578506714
 239    0.00055774297981845
 240    -0.0011363699556649
 241    0.0018205827297459
 242    0.00013895765965976
 243    -0.00019483940211616
 244    0.00030530663111754
 245    6.1516383591975e-05
 246    3.5068224399635e-05
 247    0.0049848074864552
 248     0.012056931143716
 249    0.0016528761810966
 250    -0.00047518337305518
 251    0.0001507106056937
 252    -0.00084842996566751
 253    -0.0020841346410808
 254    0.00030795325152865
 255    -0.0020351250084805
 256    -0.00014656765984332
 257    0.00036738519682954
 258    3.9132558681734e-05
 259    0.00017669430288557
 260    -7.8806455182145e-05
 261    -0.0008237722918075
 262    -0.002759341017343
 263    -0.00038745787531147
 264    0.0004072832242682
 265    0.00011509980763674
 266    0.00027164705128008
 267    0.0013449849256023
 268    0.00061857359275815
 269    0.00074817332394743
 270    3.244717545947e-05
 271    -0.00013356494717652
 272    -0.0001286474178645
 273    4.1957176063413e-05
 274    -0.00023726223395718
 275    -0.0040584758760373
 276    -0.0099553161706626
 277    -0.00082739910931864
 278    -0.00045640039744489
 279    -0.0002223100289912
 280    0.00080289797045935
 281    -0.0019325440892644
 282    -0.00056906530510367
 283    0.0019896464795807
 284    0.00012036914870885
 285    0.00036110156602174
 286    -1.4969751874863e-05
 287    -0.00020079834932813
 288    -0.00010126105935957
 289    0.0012240733701859
 290    0.0013332527616452
 291    0.0026365593661823
 292    -0.067823649173572
 293    -0.0082280236889332
 294    -0.00043061009503114
 295     0.026876816441241
 296    -0.012181380124576
 297    -0.0023022224378884
 298     0.044215032421966
 299    -0.031571920124508
 300    -0.023212059098349
 301     0.040232741761266
 302    -0.0033514110128808
 303    -0.0019733735128553
 304    0.0011093975053222
 305    2.3579116708962e-05
 306    -3.6326319193751e-05
 307    -0.0087399061951973
 308    -0.0021557808331692
 309    0.0056718397090089
 310    0.0020366075678738
 311    -0.0041040421066385
 312    0.0012602562429082
 313    -0.00029377782969021
 314    -0.0016276322524305
 315    -0.0010812659006649
 316    0.00058197600311557
 317    0.00036652930113221
 318    4.0405880685668e-05
 319    -0.00016086082599562
 320    -0.0025543235238567
 321    -0.0015223924090377
 322     0.032024933247088
 323    -0.0028738196944023
 324    -0.014975015162366
 325    -0.006552220802014
 326    -0.0016405553625389
 327    -0.019888141680618
 328    -0.012338712854037
 329      0.01199619067503
 330    -0.025119118861392
 331    -0.012197997231342
 332    0.0016958186281737
 333    -0.00042203308026903
 334    -0.0027827807352466
 335    -0.00023095057418482
 336    -0.00037962169549794
 337    0.0047594343991341
 338    -0.0029118230927305
 339    -0.0061360186063003
 340    0.0018904817896306
 341    -0.00019452445047013
 342    -0.00086306047132008
 343    0.0010336269434536
 344    0.0012356772679555
 345    -0.00097273806187064
 346    -0.00052005285336789
 347    0.00038425764544228
 348    -9.4027033708637e-05
 349    -0.00015602652942305
 350    -0.0006727813628909
 351    -0.00016585186507126
 352    0.0046882260537729
 353      0.01781228112537
 354    0.00064260581638165
 355    0.0046033542440752
 356     0.023189562010389
 357    2.2854185086009e-05
 358    0.0060651767842584
 359     0.023525738244222
 360    -0.0029513795282878
 361    0.0046859649786631
 362    0.00013530639798734
 363    0.0030549972376779
 364    -0.00029456174551709
 365    -4.3644985454122e-05
 366    -0.000567808577116
 367    0.00060226929529216
 368    0.0075725650394987
 369    -0.00054228336158257
 370    0.00011009924317602
 371    0.00088857500006985
 372    -0.00024249881329417
 373    -0.0017713311199928
 374    -2.5024932555455e-06
 375      6.8936960598e-05
 376    -0.0011132195073191
 377    0.00029603120903984
 378    9.712316745156e-05
 379    0.00074582252173135
 380    0.0020313286186524
 381    0.0019910536668897
 382    -0.048102946470385
 383    -0.0011324138529389
 384     0.013359831819841
 385     0.015311003638928
 386    0.00054048074753447
 387      0.01797380720543
 388     0.025831159947745
 389     0.019310830288517
 390     0.027688402656687
 391     0.024137813193946
 392    -0.0023324322801005
 393    -0.00078518852664211
 394    0.0034334078824754
 395    5.8026962071439e-05
 396    -0.00019104781372059
 397    -0.0060201432671317
 398    -0.0042656646237032
 399     0.007187655810962
 400    -0.0029411692276864
 401    -0.00073657950902584
 402    0.00098316654420403
 403    0.0013397801420381
 404    -0.0010382007219109
 405    0.0012820835144232
 406    -0.00071117990184556
 407    0.00038150238548719
 408    3.3496445054192e-05
 409    -0.0013326655850282
 410    0.0012362987112339
 411    -0.002602926186313
 412     0.080436175159915
 413    -0.0074403087272269
 414    0.0035653642441574
 415    -0.040721834907044
 416    -0.010369633067908
 417    0.0059130598444911
 418    -0.064273208114965
 419     -0.02990020496269
 420     0.031164057205003
 421    -0.057559181658451
 422    0.0037168978552352
 423    -0.00065859742707669
 424    -0.00073885842460289
 425    5.3700438906954e-05
 426    -6.8039884706809e-05
 427    0.0092806976745827
 428    0.0012490743550121
 429    -0.0055516353524868
 430    -0.0021843696718379
 431    -0.0055968320510581
 432    -0.0010341693868796
 433    -0.00072755451591595
 434    0.0017101348708089
 435    0.0006357024490896
 436    0.00080779251794334
 437    0.00026343626795693
 438    7.0487231941663e-06
 439    0.0067164171141121
 440     0.014476062950202
 441     0.002273454267732
 442    0.00014788473644263
 443    0.00051647107030091
 444    0.0010072465674401
 445    0.00062184555579413
 446    0.0016889306768101
 447    0.0022874938770467
 448    -0.00016847650778366
 449    0.00019888048706978
 450    0.00039204120549618
 451    -0.00011380059130548
 452    5.2171987543823e-05
 453    -0.0033530627580773
 454    -0.0056484956312585
 455    -0.00074359008170359
 456    -0.00028203805252946
 457    -0.00025441944044354
 458    -0.00035543873989315
 459    -0.00050639409840832
 460    -0.0010582407442985
 461    -0.00067661122067799
 462    4.8566575291602e-05
 463    -0.00016807824637939
 464    -3.8512479186709e-05
 465    -0.00011938894935684
 466    -0.00015174681715206
 467    4.5681331703699e-05
 468     0.000677312415132
 469    0.0005700860582543
 470    0.0003791464789389
 471    -4.4535979948964e-05
 472    6.2384026612306e-05
 473    0.0012972382965184
 474    -0.0003401039537208
 475    0.00033792853975718
 476    -2.3197484812993e-06
 477    8.1032292309498e-05
 478    -3.3757068925582e-05
 479    -1.6803529385105e-05
 480    -0.00022602338067106
 481     0.004625586309681
 482     0.009348402536503
 483    0.0011628132329356
 484    -0.0004104586037197
 485    0.00021307581459279
 486    0.00062019052590838
 487    -0.0011585791694538
 488    0.00063126197968148
 489    0.0013716144545699
 490    -8.6971273961366e-05
 491    -0.00028805998774794
 492    2.0112846978902e-05
 493    0.00014536514018258
 494    -0.00011869376358542
 495    -0.0076320168800057
 496    -0.018107120014278
 497    -0.0021656944707425
 498    0.00029775764888575
 499    -0.00058182068392149
 500    -0.0013650700926334
 501    0.0013822676322941
 502    -0.0024169542936697
 503    -0.0034025324103528
 504    0.00021916593754581
 505    0.0003088976815179
 506    -0.00051725424485888
 507    9.7861542332975e-05
 508    0.00013567730421376
 Sym= A
 Ene=               4
 Spin= Alpha
 Occup=    1.00000
   1    -4.4510420646733e-06
   2    3.3735708509987e-05
   3    0.0018472599166157
   4     0.000450637475946
   5    -0.0004371187470121
   6    0.00024910506001508
   7    -0.00036746508056819
   8    -0.00022963583534705
   9    -8.1105777596543e-05
  10    -0.00016448449663466
  11    0.00036910282695616
  12    0.00066545652636351
  13    3.4638639742449e-05
  14    0.00040049968254517
  15    0.0024795211436363
  16    -0.0062623869453412
  17    -0.00063578861734555
  18    -0.0021731437807772
  19    0.0046602888756206
  20    3.4154147924746e-05
  21    7.1277830000511e-05
  22    -9.7250491904055e-05
  23    -0.00024964109313796
  24    -1.8512125281322e-05
  25    0.00046279910949945
  26     0.006851943061251
  27    -0.021125924646813
  28    -0.021045420392648
  29     -0.92157128272489
  30     0.079552587650502
  31    -0.00014065648293245
  32    -0.0018694043970999
  33    -0.0018528024795624
  34    -0.010191090065167
  35    0.00091541129735727
  36    5.5492020226253e-05
  37    -0.00044969138152238
  38    -0.00050373429199387
  39    -0.011411230285555
  40    0.00099573484701598
  41    0.00069512065126745
  42    0.00045660171192336
  43    0.00027473056777147
  44    -0.088712872181616
  45    0.0075351580659867
  46    5.4941888718097e-06
  47    2.2029021053416e-06
  48    -6.8008770434863e-06
  49    -3.7672831706543e-06
  50    1.3266193865743e-06
  51    6.4471009876481e-06
  52    -0.00033771117025237
  53    -2.2365235083408e-05
  54    -3.1277394945961e-06
  55    1.8811641856015e-05
  56    -2.7906692854625e-05
  57    -3.3427078272225e-05
  58    5.1494502335287e-05
  59    -0.0019172438282965
  60    3.7665869305093e-05
  61    -7.7563068837025e-05
  62    -7.3690997652446e-05
  63    -0.0017362499856618
  64    0.00015625814482439
  65    -1.387356833546e-05
  66    8.6858115864871e-06
  67    -1.923117413083e-06
  68    3.9884012118853e-06
  69    -0.00019021976617799
  70    -0.0028680432596336
  71    -0.0012972025912613
  72     0.021790127590778
  73    -0.012324302290929
  74     0.010608025133355
  75    0.0031970618532246
  76    -0.014859229655882
  77     0.014743944975778
  78    0.0068640440989015
  79    -0.010576560637747
  80     0.025373251237176
  81    0.0065588432379745
  82    0.0012606629579921
  83      0.00261150772681
  84    -0.002392371813767
  85    -0.00036206990588756
  86    -8.5571825916578e-05
  87    0.0036990416410721
  88    0.0070537738792997
  89    -0.0045850417581624
  90    0.00076988635861795
  91    0.0015079901665418
  92    0.00071481709166823
  93    0.0015787926652997
  94    -0.00062730822576031
  95    0.0011199586173912
  96    0.00074406038387478
  97    -0.00015533886846667
  98    0.00037417105856773
  99    -0.00015462025498238
 100    -0.0012271471093266
 101    -0.00079159872802617
 102     0.016873852288464
 103     0.013288253277412
 104      0.01142921770481
 105    0.0059534624971938
 106     0.016779599615141
 107     0.014920261578287
 108    0.0097421826223219
 109     0.012471351348031
 110     0.020535990584669
 111    0.0090429147143248
 112    0.00082943587093263
 113    -0.0022681603255726
 114    -0.0017225322120954
 115    -0.00055150568092073
 116    0.0001703851993491
 117    0.0019760862516074
 118    -0.0062598965299941
 119    -0.0035438461803259
 120    0.00043706313718098
 121    -0.0014831344403988
 122    0.00030163157536443
 123    -0.0015952951683964
 124    -0.00071501806077791
 125    0.00089856260347752
 126    -0.00052097657738478
 127    -1.0147469480061e-06
 128    0.00027161781320397
 129    0.00061127668695501
 130    0.0024079207421252
 131    0.0021607716198183
 132    -0.050812121740878
 133    0.0070232110056138
 134    -0.0097473202767495
 135    -0.015017902254701
 136     0.011561408909553
 137    -0.011610357497051
 138    -0.025961810624618
 139     0.033286337435487
 140    -0.0068351894123044
 141     -0.02424309744871
 142    -0.0025933141104198
 143    -0.0012977659262199
 144    0.0024191451587849
 145    -0.0001424690114911
 146    0.00020036642986381
 147     -0.00721371345975
 148    -0.00027588353120017
 149    0.0066665998877486
 150    -0.0020732253944575
 151    -0.0025726189663424
 152    -0.0011928921145719
 153    0.00056849509416027
 154    0.0014109170712982
 155    4.7491146634398e-05
 156    -0.001246093817011
 157    5.6088724331345e-05
 158    0.00047251264828464
 159    -0.0010818519838385
 160    -0.00083036032543641
 161    -0.0029052621395043
 162     0.078209132419501
 163    -0.0011013230953778
 164    -0.0066936219353321
 165     0.037476582857646
 166     -0.00145230565539
 167    -0.0098719699720602
 168      0.05972442566102
 169    -0.003523727637762
 170    -0.042108493199528
 171      0.05345709456734
 172    0.0037923696169439
 173    0.00083885456823317
 174    -0.0001152019635726
 175    -7.1481154603916e-05
 176    -9.4719478708492e-05
 177    0.0095907750426419
 178    0.0017971658574749
 179    -0.0047396124422482
 180    -0.0062616034305131
 181    -0.00035428159755417
 182    0.0011594439220363
 183    0.00013346778231044
 184    -0.0017731289172131
 185    -0.0009922967366214
 186    -0.00033634510035528
 187    -4.77862934389e-05
 188    0.00036363090146674
 189    0.0013140375121438
 190    -0.0001018800746694
 191    0.0023358733247335
 192    -0.068610450665626
 193    -0.0086748836255842
 194    -0.0067077119226945
 195    -0.030894851012593
 196    -0.011996344576429
 197    -0.0083571646321866
 198    -0.049624419801957
 199    -0.039474952130557
 200    -0.0024662078764649
 201    -0.045032951552317
 202    -0.0031889179295894
 203    0.00078023893055228
 204    0.0024212286466476
 205    -9.7834723773257e-05
 206    -8.4199832764024e-05
 207    -0.0082804706899768
 208    -0.0018967818041636
 209    0.0067715754455916
 210    -0.0038876110454011
 211    0.0036998130649362
 212    -0.0010713434207734
 213    -0.0011211997562669
 214    0.0013664401343922
 215    -0.00012427696420628
 216      0.00127748502048
 217    -4.0042727846065e-05
 218    0.00036565975369354
 219    -0.0027180579499643
 220    -0.004180693840305
 221    -0.00055408530191258
 222    -0.00039045068073059
 223    7.9244581402555e-05
 224    0.00021795475154886
 225    -0.00096549263712354
 226    0.00075647527497901
 227    0.00040775767668241
 228    4.0622168246488e-05
 229    0.00016934208052953
 230    9.4912832382286e-07
 231    -0.0002153776679457
 232    -6.4158667531445e-05
 233    -0.0018383674176344
 234    -0.0043848555419209
 235    -0.00039831866362028
 236    0.00039366970970745
 237    9.0638281149662e-05
 238    0.0002347751327822
 239    0.0014490710596434
 240    0.00033093627927005
 241    0.00051723592291793
 242    3.3741118967127e-05
 243    -0.00013787377610742
 244    9.5335455279407e-06
 245    -0.00018920970765451
 246    8.7935245659598e-05
 247      0.00543925689799
 248     0.010261842889871
 249    0.0020349644612059
 250    -0.0002591882368208
 251    -0.00035697206439815
 252    -0.00067049999196806
 253    -0.00040070129146784
 254    -0.0011247853669047
 255    -0.0013343335091814
 256    -9.0851615790411e-05
 257    0.00023562240959904
 258    0.00018168271473535
 259    -6.3070884049724e-05
 260    0.00012952292837373
 261    -0.0077202323927244
 262    -0.018305006889279
 263    -0.0022931969781166
 264    -3.2184517760301e-05
 265    0.00061852540413047
 266    0.0012520092385848
 267    -7.7703419321725e-05
 268    0.0027895935571009
 269    0.0031366494383477
 270    0.00020046773915332
 271    2.4925555277877e-05
 272    -0.00055833206014107
 273    0.00013195019196907
 274    1.9778097333171e-05
 275    0.0067672677565464
 276       0.0162328138288
 277    0.0021672531596192
 278    0.00043527347552921
 279    -0.00035538218461632
 280    -0.0010759510118317
 281    0.0021343107981603
 282    -0.0014733733508109
 283    -0.0025922451560902
 284    -0.00018162948475337
 285    -0.00043088670049529
 286    0.00024027782259804
 287    2.7244199613072e-05
 288    -0.00017704056514493
 289    -0.0007167492206908
 290    0.00044471434222132
 291    -0.0012457945818051
 292     0.037326672687154
 293    -0.011248479216044
 294     0.012444362881766
 295     -0.02190094314517
 296    -0.014797180458108
 297     0.015426172781767
 298    -0.033824032192276
 299    -0.0075664522848839
 300     0.028148455944985
 301    -0.030355188972504
 302    0.0016090001301431
 303    -0.0028241056181751
 304    0.0016263276530701
 305    -0.00046242968194717
 306    -7.8174109264476e-05
 307    0.0036924775851514
 308    -0.0080238587104511
 309    0.0023580975182996
 310    -0.00019332153577122
 311    0.0036859312774427
 312    -0.00028225529225077
 313    0.0018442967041113
 314    -0.00026537585808933
 315    -0.00099856547660959
 316    -0.00076957076386893
 317    6.7966852729124e-06
 318    0.00028994857468206
 319    0.00056750109544806
 320    0.0020825213887295
 321    0.0024738774400631
 322    -0.060822703157914
 323    -0.0070923036024797
 324    -0.0072985664437896
 325       0.0217480838503
 326    -0.011266576215347
 327    -0.008644049494269
 328     0.036247428061858
 329     -0.03641755547388
 330    0.00057118765604613
 331     0.033104988700045
 332    -0.0030392569148168
 333    -0.00072172516726512
 334    -0.0010331399845434
 335    -0.00021556757356252
 336    -0.00023910886733681
 337    -0.0081018123848944
 338    0.0015459697030128
 339    -0.0038107682138522
 340    -0.0032453267520488
 341    0.0028798049185605
 342    0.0012426740574554
 343    -0.00091081410521851
 344    0.0012451815747514
 345    0.00042589119446302
 346    -0.0008065858043294
 347    -0.00013200238706928
 348    0.00042189671308478
 349    -0.0010382232884512
 350    -0.0022937278316511
 351    -0.0028052252054751
 352     0.069674183227848
 353    -0.0018265914294165
 354    -0.0053783802314584
 355    -0.023911742757863
 356    -0.0022682429334983
 357    -0.009582764448971
 358    -0.040171851504879
 359    -0.00053867238281925
 360    -0.039908103869761
 361    -0.036683825126757
 362    0.0034850200740343
 363    0.00025291470857751
 364    -0.00041889476211381
 365    -6.8482807841763e-05
 366    0.00016446184557524
 367    0.0093567926704065
 368    0.00033757324332375
 369    0.0030993463008338
 370    -0.004807518775282
 371    0.00012512595689681
 372    -0.0014473586964853
 373    0.00012371035966913
 374    -0.0014420180160778
 375    0.00096781365161639
 376    -0.00010490240435763
 377    -1.4058822243823e-06
 378    0.00047649296586567
 379    0.00096549447589853
 380    -0.00053786587768767
 381     0.002132580777893
 382    -0.063046863510563
 383    0.0090042044431325
 384    -0.0092794127080386
 385     0.032127871785495
 386     0.012274261391394
 387    -0.011522383286643
 388      0.05061868326249
 389     0.036023013886402
 390    -0.0044427204699526
 391     0.045333261221151
 392    -0.0029398209203799
 393    0.00045198884202437
 394    -0.0019981382840672
 395    -0.00023049510457351
 396    0.00025487553326492
 397    -0.0072860433860178
 398    -0.0022529367283472
 399    -0.0060871654809161
 400    -0.0035733076125732
 401    -0.0035709006689983
 402    0.0008053881011348
 403    0.0009950821184297
 404    0.0015204028262774
 405    0.0001730213807764
 406    0.0010379442469545
 407    -3.4097677843276e-05
 408    0.00028546833034852
 409    -0.00013656423376051
 410    -0.00028014201755452
 411    -0.00066887951551367
 412     0.017600872607108
 413     0.013087240211928
 414     0.010984608309974
 415    -0.0086387782924694
 416     0.016562301226324
 417     0.014536128599602
 418    -0.013725883843904
 419     0.015686190028143
 420     0.022946530977987
 421    -0.012341379095511
 422    0.00086565491722248
 423    0.0035299157233776
 424    0.0025142082297792
 425    -0.00032074354896118
 426    6.5742985432182e-05
 427    0.0021441562495951
 428    0.0089240022396726
 429    0.0050562462267458
 430    0.00086641224617534
 431    -0.0016502020148301
 432    -0.00024601543470004
 433    -0.0016531836598247
 434    -0.00070542246607259
 435    -0.0014970603534857
 436    0.0007200899237644
 437    -4.5124272906454e-05
 438    0.00034849280737305
 439    -0.0033127031125458
 440    -0.009746403353758
 441    -0.00095945301622481
 442    -0.00046792975890376
 443    -3.3096254124808e-05
 444    -0.000651227795912
 445    -0.0022761541975901
 446    -0.0008990483642862
 447    -0.0017263945901329
 448    0.0001323079536413
 449    -0.00027819918727535
 450    -0.00016755535558909
 451    -0.00015938287428405
 452    -0.00015946884419203
 453    0.0061954962566651
 454     0.012716155901411
 455    0.0014968281177906
 456    0.00035004773948919
 457    -0.00030143534556908
 458    0.00085648129423796
 459    0.0010694712591807
 460    -0.0011147745798068
 461    0.0018625441386709
 462    -0.0001439073241802
 463    0.00034424538203236
 464    -0.00016387420742548
 465    -2.1491194118598e-05
 466    -0.00012402832302155
 467    -0.0071671181782641
 468    -0.014808919401722
 469    -0.0020489543330105
 470    -3.4860731451522e-05
 471    0.00050322441529774
 472    -0.00096093978250228
 473    -0.00019590870392556
 474    0.0014930415218002
 475    -0.0021053190342601
 476    0.00015410352596238
 477    1.418902491862e-05
 478    0.00041635362816667
 479    5.9835946812283e-05
 480    6.7129037217428e-06
 481    0.0060623184372315
 482     0.015047607168961
 483    0.0021873053709005
 484    -0.00039473061840291
 485    -0.00038984015458047
 486    0.0010718986834538
 487    -0.0020443442586239
 488    -0.001589591023025
 489    0.0026313069657797
 490    -0.00017020994583358
 491    -0.00043322024097385
 492    -0.00022608335251604
 493    8.9908569011408e-06
 494    0.00018110834813317
 495    -0.0015543090333116
 496    -0.0036447787841854
 497    -0.00038567066779369
 498    0.00038645151377586
 499    0.00012364502556528
 500    -0.00028463693854763
 501     0.001428900868947
 502    0.00034712246273119
 503    -0.00073965242683157
 504    3.7627550733366e-05
 505    0.00021750799120362
 506    -5.8825984547825e-06
 507    -0.00020540337821558
 508    0.00010376524295383
 Sym= A
 Ene=               5
 Spin= Alpha
 Occup=    1.00000
   1    -2.8956429449142e-05
   2    -8.7337449611334e-05
   3    -0.000365975344387
   4    -0.0012534437766453
   5    -0.00064386074151322
   6    0.0012983230740686
   7    -0.0010041698533114
   8    -2.8664666779117e-05
   9    -5.8714123890308e-05
  10    6.309444436397e-05
  11    4.5569087890183e-05
  12    -0.00049048280577296
  13    0.0012437349347223
  14    -0.0026333019383818
  15    -0.0016990155411447
  16     0.017211891054574
  17    0.0025926128485462
  18    -0.00019068612476074
  19    -0.012863620021225
  20    1.5078929725165e-05
  21    0.0010085415166266
  22    0.00056625936516017
  23    0.00079384978446956
  24    -0.00040421450856247
  25    -0.00046866723149545
  26    -9.6582033654518e-05
  27     0.057559055685757
  28     0.057790282621674
  29       0.1703171373326
  30    -0.011605733790356
  31    0.0041283337813507
  32    -0.018426197810718
  33    -0.017285790104274
  34     -0.65500507532581
  35     0.045203883600461
  36    -0.00015025031792284
  37    -0.0033904917175587
  38    -0.0023441649410936
  39    -0.016694297746708
  40    0.0014230786098801
  41    0.0015128803272927
  42    0.0024440996340727
  43    -0.003324716284999
  44     -0.21988187726304
  45     0.014319114383785
  46    2.2678018496393e-05
  47    0.00016841461005893
  48    0.00016455685090121
  49    0.00027567718534751
  50    -0.00015719131516173
  51    0.00014346615707877
  52    -0.0013874039450649
  53    -5.2089162402719e-06
  54    0.00010825041947168
  55    4.0450610056679e-06
  56    8.7942650418611e-05
  57    -4.1586496456461e-05
  58    5.2529140382886e-05
  59    -0.00087462807704986
  60    7.4910642094677e-05
  61    -0.0010493542771273
  62    -0.00098404617596945
  63    -0.010822806400227
  64    0.00079036967631007
  65    0.00097556128827216
  66    -0.001457987213296
  67    -1.5677264696096e-06
  68    7.8314168848295e-05
  69    -0.00031820172128184
  70    0.0025209426531377
  71    -0.0012506813321998
  72     0.048767177992375
  73    -0.013397164994296
  74     0.014054036439194
  75       0.0216671404796
  76    -0.016295274559067
  77     0.016851520379247
  78     0.032999579667086
  79    -0.023458481929566
  80     0.046143473727266
  81     0.030506625139599
  82    0.0028563689760064
  83    0.0065032978877264
  84    -0.0053293349951474
  85    0.0011011891174261
  86    7.0319170466815e-05
  87    0.0056304950473597
  88     0.015422744868124
  89    -0.010817281866157
  90    -0.0023980224935327
  91    0.0092928453356819
  92    0.00076704604896335
  93    0.0026598690793954
  94    -0.00086253737487787
  95    0.0016421486484538
  96    0.0013484493115463
  97    -0.00051393938418174
  98    0.00013893132906243
  99    -0.00021379337355181
 100    0.0032673314832425
 101    -0.00038747076168996
 102     0.044503586418497
 103       0.0153655958723
 104     0.014760766791426
 105     0.016756013252437
 106     0.017359545052297
 107     0.017531849576347
 108     0.025021216274173
 109     0.025564563418826
 110     0.045178813306431
 111     0.023405239376815
 112    0.0016944134869104
 113    -0.0063892758024922
 114    -0.0050846971723027
 115    0.00085476644383068
 116    -6.9589952528472e-05
 117    0.0027129451865321
 118    -0.014929611776806
 119    -0.010255904014038
 120    -0.0010688252850156
 121    -0.0056454841351715
 122    0.00030702142736949
 123    -0.0025393128796255
 124    -0.0014424118302103
 125    0.0018435712504299
 126    -0.00084850741467019
 127    0.00014715128144055
 128    0.00014082355825457
 129    0.00084058257834033
 130    -0.0085047472194692
 131    0.0014216503219587
 132     -0.11846462644268
 133     0.012246233833393
 134    -0.009351477074744
 135    -0.050330168840481
 136     0.016655861359133
 137    -0.010755725455881
 138    -0.076018657213398
 139     0.067437875497178
 140    -0.013851825182329
 141    -0.067850565299791
 142    -0.0058578514705179
 143    -0.0029795998604122
 144    0.0052632074065613
 145    0.0010071924154495
 146    -0.00018240819525436
 147    -0.010552447511696
 148    -0.0042716722797384
 149     0.013041511045136
 150    -0.014179309140289
 151    -0.010230507746708
 152    -0.0014592924554916
 153    0.00047672076212953
 154    0.0019956872653851
 155    -0.0001284631079955
 156    -0.0019647586055511
 157    0.00037706482749274
 158    0.00086320000079122
 159    -0.0012539366867214
 160     0.016973402090821
 161    5.0583239890612e-05
 162      0.15692271977626
 163    -0.00058263457618004
 164    -0.014188871557613
 165     0.077536827498147
 166    -0.00091369504779423
 167    -0.019972904299792
 168      0.11533759542048
 169    -0.0026714255500535
 170    -0.076827743047491
 171      0.10377769775975
 172    0.0072011649639418
 173    0.00093806984060511
 174     0.001496206163063
 175    0.0009719446940104
 176    -0.00032413448921659
 177     0.013802659186539
 178    0.0020476082873522
 179    0.00058664671707831
 180    -0.021653636397098
 181    0.00050481420359653
 182    0.0016407723835358
 183    9.7062541156183e-06
 184    -0.00076800485935783
 185    -0.001349997095553
 186    -0.00015325225755228
 187    3.6415529537049e-05
 188    0.00097701508069644
 189    0.00092270733353784
 190    -0.014590129694962
 191    -0.00024753364160802
 192     -0.12752150655015
 193    -0.014535962657549
 194    -0.0057320836816036
 195    -0.065415590756786
 196    -0.019821942650076
 197    -0.0074090783631463
 198    -0.096581254387309
 199    -0.067188002794998
 200    -0.008213307056014
 201    -0.087209629110648
 202    -0.0062788515793721
 203    0.0029206195705259
 204    0.0045538713867614
 205    0.0012118268162488
 206    -6.3495746240316e-05
 207    -0.012345783412901
 208    0.0048136763581992
 209     0.011333675891341
 210    -0.015306018589711
 211     0.011188668927543
 212    -0.0014118105563261
 213    -0.00013947464407249
 214    0.0016789651237229
 215    -2.4284988611512e-05
 216    0.0016890018149457
 217    -0.00046738893679316
 218    0.00087633198354149
 219    -0.0047560239024804
 220    -0.017613059956506
 221    -0.0048508498136598
 222    -0.0005720246581611
 223    -5.983972415748e-05
 224    0.00069622803260609
 225    -0.004364062430551
 226    -0.00014147355257404
 227    0.0018992803029791
 228    8.3399786462535e-05
 229    0.00034881449877924
 230    0.00012384513251293
 231    -0.00044469200704079
 232    -0.00011394235993765
 233    -0.0032214045036668
 234    -0.011327404565851
 235    -0.0024509402456665
 236    0.00055318515933271
 237    7.3068335978172e-05
 238    0.00056808600887063
 239    0.0040758599291214
 240    0.00084854672727707
 241    0.0014329253751643
 242    -3.521751785475e-05
 243    -0.00049098275955578
 244    -1.1513262672911e-05
 245    -0.0005310404094594
 246    8.9160532222296e-05
 247     0.010345322885793
 248     0.034880188240579
 249    0.0078796972244202
 250    -0.00042913465183539
 251    -0.00060919766097342
 252    -0.0016041806532759
 253    -0.0038794204475684
 254    -0.0038730940823566
 255    -0.0037245700787324
 256    -0.00010016105057542
 257    0.00057423476450998
 258    0.00042195611725139
 259    -0.00038674077986448
 260    0.00020300471111274
 261    -0.013816933637661
 262    -0.045167499716946
 263    -0.012016136888928
 264    2.0128211002954e-05
 265    0.00071012468082147
 266    0.0024749182405119
 267    -0.0006248285676799
 268    0.0061621856877917
 269    0.0054258447226229
 270    1.7391428934661e-05
 271    -5.4048432880495e-05
 272    -0.001052445729091
 273    -0.00017157829913154
 274    5.7077595051354e-05
 275     0.011979190717889
 276      0.03909480718661
 277     0.012682915141127
 278    0.00050104337125036
 279    -0.00039550861262097
 280    -0.0020144185462768
 281    0.0040980020966076
 282    -0.0034343068011391
 283    -0.0046871748167574
 284    1.9318741756723e-05
 285    -0.00073730681008272
 286    0.00039998955572901
 287    -0.00030063422295843
 288    -6.0256872737763e-05
 289    -0.00058715385122629
 290    0.0081716322411951
 291    0.00049219313386967
 292     0.069827793236193
 293     -0.01199518775357
 294     0.016448742996555
 295    -0.033168261256024
 296    -0.014346091495777
 297      0.02018206096526
 298    -0.047206593795795
 299    -0.019896026125331
 300     0.054212700079136
 301    -0.042866277318992
 302    0.0024416867814868
 303    -0.0064271266302111
 304    0.0054509454145683
 305    0.00095625602856095
 306    -0.0001585994764455
 307    0.0038508321186973
 308    -0.014790445727391
 309     0.012089812585218
 310    -0.001696341212142
 311    0.0084373396036782
 312    -0.00026040759639277
 313    0.0023223191852691
 314    -0.0017608478923925
 315    -0.0018709778292629
 316    -0.0011188974059084
 317    -0.00017714330703222
 318    0.00017360896879941
 319    0.0011277286519798
 320    -0.010799169540985
 321    0.00087906591775191
 322     -0.14318554229252
 323    -0.013608911370934
 324    -0.0081489984547256
 325     0.058159262542937
 326    -0.018320240999291
 327    -0.0090346088474882
 328     0.086359064977691
 329    -0.073379045146174
 330    -0.003131792795041
 331     0.078298820273531
 332    -0.0063314932955626
 333    -0.0024274823392927
 334    -0.0039108865535853
 335    0.00096984638947417
 336    -7.8761573205043e-05
 337    -0.010347862107759
 338    -0.0040832154581109
 339    -0.0085676415936918
 340     -0.01535430713711
 341     0.011656101829854
 342    0.0014846074496166
 343    -0.00021174942393559
 344    0.0018218887436576
 345    0.00035462629010352
 346    -0.0015604433518886
 347    -0.00048546614173549
 348    0.00071261134157381
 349    -0.00099427031216844
 350     0.012686405083926
 351    -0.0014331085882115
 352      0.16509334543487
 353    -0.0022424402615965
 354    -0.012171476468993
 355    -0.068072993903319
 356    -0.0027084535954704
 357    -0.015395632866947
 358     -0.10042285905979
 359    -0.0034815088528227
 360    -0.081397071897197
 361    -0.093530636347559
 362    0.0073366855549422
 363    -0.00027565912267222
 364    -0.0013747437402726
 365    0.00085313142225381
 366    0.00016740227961297
 367     0.012208258800564
 368    -0.00091669691306932
 369    -0.00073052780013763
 370    -0.023680461499162
 371    -0.00043227797155357
 372    -0.0015284372471454
 373    0.00024708180820762
 374    -0.0010552367851873
 375    0.0014671274585302
 376    0.00012730531958299
 377    -3.6396047679682e-05
 378    0.0010689732269142
 379    0.00084639316686586
 380    -0.014189246040439
 381    -0.00031981955550238
 382      -0.1286644483124
 383     0.015302167231912
 384    -0.0095462167678155
 385     0.061107721930226
 386     0.019383295006031
 387    -0.011305699330664
 388     0.089293867981217
 389     0.067702688751394
 390    -0.010432466984836
 391     0.081850176617009
 392    -0.005373151880076
 393    0.0028269276652086
 394    -0.0048308310624202
 395    0.0011958280087493
 396    8.5562156779265e-05
 397    -0.009443681789322
 398    0.0056882783787932
 399    -0.012095394631473
 400    -0.013592560124905
 401    -0.010748648535102
 402     0.001051869586251
 403    -0.00028941859087087
 404    0.0020314456301559
 405    -0.00016294866127851
 406    0.0017224917376824
 407    0.00041527862773806
 408    0.00054633244065496
 409    -0.00032376837713368
 410    0.0039708941807255
 411    9.570376552106e-05
 412     0.031732690907409
 413     0.013446314932681
 414     0.013808281331475
 415    -0.018927182570205
 416     0.015855728058278
 417     0.017689977816972
 418    -0.027897980166877
 419     0.031292589361995
 420     0.043246664729281
 421    -0.023434989067531
 422    0.0017055448366804
 423    0.0071959016533383
 424    0.0055524314483434
 425    0.0011053095254732
 426    -0.00019600028364528
 427    0.0036626651474919
 428     0.017672580976862
 429     0.012739014254561
 430    -0.00046008423081511
 431    -0.0046134622906424
 432    -0.0004413174252976
 433    -0.0024747482631486
 434    -0.0015720331635358
 435    -0.002134070943889
 436    0.00099757476517799
 437    0.0001308473631642
 438    0.00017252084842885
 439    -0.0051645905344887
 440    -0.018998260864357
 441    -0.0050378047736309
 442    -0.00061663706396148
 443    0.00010326488604275
 444    -0.00095395050564694
 445    -0.0042890252888879
 446    -0.00057379933844719
 447    -0.0023143347257985
 448    -1.6330725677509e-05
 449    -0.00038690271018028
 450    -0.00024971482895677
 451    -0.00038438888907726
 452    -1.5919367335576e-05
 453     0.011563016092292
 454     0.039747864070336
 455     0.010381537004368
 456    0.00041766420589807
 457    -0.000439805420033
 458    0.0018708817766007
 459    0.0051211481385305
 460    -0.0036453891146224
 461    0.0040628876573107
 462    -1.9142964377103e-05
 463    0.00063356920859721
 464    -0.00034788094443307
 465    -0.00024560498523049
 466    -7.3800004314691e-05
 467    -0.013110864851931
 468    -0.048134340065201
 469    -0.0087768192565799
 470    -4.1858286178167e-05
 471    0.00082858294470972
 472    -0.0021774845783075
 473    -3.8190171267629e-05
 474    0.0074863671983231
 475    -0.0047859146551372
 476    0.0001823409546426
 477    5.7257461730201e-05
 478    0.00087234322462982
 479    -6.7066898893972e-05
 480    1.1414899702082e-05
 481     0.010702697429243
 482     0.037297034210335
 483     0.010370199329076
 484    -0.00046698233366448
 485    -0.00048749040252273
 486    0.0019821163150496
 487    -0.0042008199814406
 488    -0.0039373283722461
 489    0.0042057028329507
 490     1.81405775464e-05
 491    -0.00070485106638949
 492    -0.00041104886531964
 493    -0.00028371148358943
 494    0.00013222221385825
 495    -0.0032629274641124
 496    -0.009991223494943
 497    -0.0025734160719536
 498    0.00047605174851241
 499    0.00018326180643979
 500    -0.00056614977713399
 501    0.0035971638067609
 502    0.0011717349930207
 503    -0.001587920853958
 504    7.4608147677491e-06
 505    0.00041213479685083
 506    -4.2543723599472e-07
 507    -0.00041762535676164
 508    0.00014171658011476
 Sym= A
 Ene=               6
 Spin= Alpha
 Occup=    1.00000
   1    -0.00021742189735997
   2    -0.00065565238822056
   3    -0.0036174969220087
   4    -0.011489659679366
   5    0.0025129472402319
   6    -0.0013872222510595
   7    -0.0014413381136249
   8    5.2501021336061e-05
   9    -8.3080541483793e-05
  10    0.00010034458578767
  11    0.00032767635478399
  12    -0.00046156812651463
  13    0.0019095677541499
  14    0.0014972164810806
  15    -0.002256572016421
  16     0.047857700495221
  17    -4.6225967334815e-05
  18    6.8294894545529e-07
  19    -0.042285751869219
  20    -0.00035278859275806
  21    0.00077388430717296
  22    0.0012425846534133
  23    -4.5301175784916e-07
  24    -0.00020882331663722
  25    -0.002760194296257
  26    0.00034269009527047
  27    -0.063008766160769
  28     0.060548652465031
  29     0.011720537160938
  30      0.17056032467417
  31    0.0036088860472739
  32     0.018505308764521
  33    -0.018115503568487
  34    -0.045169823836461
  35     -0.65406725832999
  36    -0.00020946060758584
  37    0.0028558981279359
  38    -0.0026801415441126
  39    -0.0014583346794028
  40    -0.015939599512818
  41    -0.002959475649497
  42    0.0080855965933921
  43    -0.0027728323830882
  44    -0.015556932557813
  45     -0.21640843544005
  46    3.6280571311693e-05
  47    -0.00012899794335322
  48    0.00022369376737874
  49    -4.222314292853e-05
  50    -8.8809321294114e-06
  51    -0.0012705157612663
  52    3.0137729087461e-05
  53    0.00015696290575209
  54    -6.3686149052137e-05
  55    0.00011909004295436
  56    2.2630092261853e-05
  57    0.00020992047669519
  58    -0.001736696837598
  59    -0.0001579109420467
  60    6.1528356352005e-05
  61    0.0011668106464809
  62    -0.0011256966516652
  63    -0.00077927408059952
  64    -0.010899985197204
  65    0.0012330083593278
  66    0.0010529150319637
  67    -0.00010322068139505
  68    -4.0189442451481e-06
  69    0.0012909895118308
  70    -0.013690632226773
  71    0.00070559194048386
  72     -0.16570037596435
  73    -0.014479909245245
  74    -0.0047360722526146
  75    -0.068385049591533
  76    -0.019917148428501
  77    -0.0080523663152227
  78     -0.10097425932633
  79    -0.062540908406073
  80    -0.054820870869477
  81    -0.094409307917324
  82    -0.0068270156726981
  83    0.0030832689882878
  84    -0.00077040293367155
  85    -8.7416112156346e-05
  86    0.0010398236279671
  87    -0.011493690178295
  88    0.0062433947262673
  89    -0.0031333968574576
  90    0.0070113419240585
  91    -0.020852803561268
  92    -0.0014582087633799
  93    0.0006800934243845
  94    -0.0013573054857759
  95    0.0011602534504827
  96    -0.00093576862525256
  97    0.00079629567360168
  98    -0.00048659118358299
  99    -0.0013004586515535
 100     0.010178087754193
 101    -0.0020614253180064
 102      0.17891675086892
 103    -0.010527309245464
 104    0.0057361008534854
 105     0.063821198211961
 106    -0.015139814529001
 107    0.0086774459567872
 108     0.094856609091864
 109    -0.058617446348206
 110     0.062121301583805
 111     0.091003496577128
 112    0.0072537172192533
 113    0.0025210717615399
 114    9.7928484513579e-05
 115    8.4645023684814e-05
 116    0.00096427790044571
 117     0.011379578818007
 118    0.0041303138786998
 119    0.0023442029755285
 120    -0.0069635945807113
 121    -0.022804929966124
 122    0.0015400778901315
 123    -0.00014880837819112
 124    0.0013912830962415
 125    -0.0009220098105866
 126    -0.0012170287075437
 127    0.0011470004168008
 128    0.00054441527466574
 129    0.00081588567671554
 130    -0.010712383563369
 131    0.00051847463448779
 132       -0.112609486139
 133    0.0033356753579847
 134     0.018896991416574
 135     -0.04912181791255
 136    0.0047054085858904
 137     0.023112811176652
 138    -0.072782727300301
 139     0.039361499334751
 140     0.054422532668177
 141    -0.066362367949663
 142    -0.0045992798073201
 143    0.00099836525906094
 144    -0.0066038369921009
 145    0.00010711912762457
 146    0.00082761913248184
 147    -0.0072906650132453
 148    0.0037174987394777
 149     -0.01437097623852
 150    -0.012723956686357
 151    -0.0083455450052175
 152    -0.00090856003026751
 153    0.0013823555999191
 154    -0.0021314536377902
 155    -0.0016343459917848
 156    0.00081991176442156
 157    0.00027230929502072
 158    0.00057033861105116
 159    -0.00025868983609626
 160    0.0027260429810741
 161    0.00055571225506371
 162      0.01436800501797
 163     0.020070889352523
 164    -0.0018417319431851
 165    0.0094216154851723
 166     0.023664416909803
 167    -0.003327185391062
 168     0.013158115423471
 169     0.051175059446376
 170    -0.0064205761422092
 171     0.013136634688704
 172    0.0002929683187374
 173    -0.0093845454364415
 174    8.5089260168819e-05
 175    0.00013446338294833
 176    0.0011291353954277
 177    0.00060891709764515
 178    -0.021579170298209
 179    0.00062040542827048
 180    -0.001107673418577
 181    0.0015747078037454
 182    0.00010801155273987
 183    -0.003113148783593
 184    5.1297377531688e-05
 185    2.2599508526699e-05
 186    0.0024799182572363
 187    0.00013878789568585
 188    6.8359983937391e-05
 189    -0.0006671462074521
 190     0.010780121235435
 191    0.00034366253726592
 192     0.096198672889966
 193    0.0026082418376373
 194    -0.018834868961431
 195     0.044567926302487
 196    0.0036244044224801
 197    -0.023626279940699
 198     0.065713956489867
 199     0.031137450858032
 200     -0.05590642853473
 201     0.061036127748311
 202    0.0038077374079144
 203    0.0016520822996841
 204    0.0077718056399361
 205    9.9246434834815e-06
 206    0.0012740103818894
 207    0.0065554561965885
 208    0.0049465102381585
 209     0.018002444371406
 210     0.010596077093063
 211    -0.0070053000768498
 212     0.000737067572698
 213    0.0011609417498551
 214     0.002607530439924
 215    0.0018826879952067
 216    0.0013664395240617
 217    0.00032959221208111
 218    -0.00049751028449503
 219     0.012838917127415
 220     0.044066422626458
 221    0.0077066437570868
 222    0.00025172514423698
 223    0.00065403604208658
 224    -0.002069168515404
 225    0.0029377553641825
 226    0.0056177391840744
 227    -0.0047090358572709
 228    -1.4239127855289e-05
 229    -0.00044650789773209
 230    -0.00079336732249911
 231    4.2335153103377e-06
 232    -0.00025386529211987
 233     -0.01278641832598
 234    -0.045938309386973
 235    -0.0085338224160006
 236    0.00036710200118899
 237    -0.00064787249616322
 238    0.0021936708602063
 239    0.0033103658958901
 240    -0.0064072145179142
 241    0.0042187285034491
 242    -2.1291744223847e-05
 243    -0.00058880028542617
 244    0.00084812536453129
 245    -4.6188596051407e-06
 246    -0.00025291460668306
 247    0.0090292717105216
 248     0.032624099674104
 249    0.0070904210483334
 250    -0.00070949984292959
 251    0.00016298231060945
 252    -0.0015616436591455
 253    -0.0053984226724189
 254    0.00079071739472894
 255    -0.0032141216524182
 256    -9.1187076308858e-05
 257    0.00065327653281111
 258    -4.0605598963033e-06
 259    0.00018740588729879
 260    -0.00029533808661633
 261    -0.0011012136424115
 262    -0.002723188626037
 263    -0.00077941857318032
 264    0.00053947590191243
 265    0.00012468513812449
 266    0.00029508693979823
 267    0.0034504690392621
 268    -0.00020057912758311
 269    0.00038332555467063
 270    -3.7325282191072e-05
 271    -0.00044390494972767
 272    -0.00018321419914227
 273    -5.6160497962613e-05
 274    -0.00041826171131989
 275    -0.0074364467747198
 276    -0.026105690101666
 277    -0.0059867071622614
 278    -0.00058057456991042
 279    -0.00021207235134092
 280    0.0014416325553485
 281    -0.0051009984793949
 282    -0.0016660495543208
 283    0.0027242287925985
 284    -4.8201860012938e-05
 285    0.00056834150024765
 286    8.3976300682161e-05
 287    -0.0001945926638016
 288    -0.00032817195562205
 289    0.00096427801601816
 290    -0.013156246075998
 291    0.00094483868876435
 292     -0.14808964057833
 293    -0.012153894803334
 294    -0.005703694683542
 295     0.066417369628603
 296    -0.017579916930469
 297    -0.0096934303665045
 298     0.098854559386634
 299    -0.056887445509655
 300    -0.046355301707968
 301      0.09245352799906
 302    -0.0068360128808836
 303    -0.0038384047113538
 304    0.0012338936798752
 305    0.00024103015894122
 306    0.0011406067140868
 307    -0.012682555006241
 308    -0.0075830644380087
 309    0.0037845183800989
 310     0.006560705477552
 311    -0.019930157748311
 312    0.0013658101915685
 313    0.00038083257741065
 314     -0.00133409785967
 315    -0.0013132850011814
 316    0.00090939623641281
 317     0.001165474052026
 318    -0.00024372351608614
 319    -0.00076569648952573
 320    0.0043497255971747
 321    -0.0014964508358446
 322      0.09173096562678
 323    -0.00041899553785598
 324    -0.018702405133433
 325    -0.032734287141216
 326    -0.00026215851022621
 327    -0.023498956859866
 328    -0.049635207457523
 329     0.023925965633987
 330    -0.053786505424228
 331    -0.047416574348493
 332    0.0040420195089332
 333    -0.0015381358479755
 334    -0.0073002510157169
 335    0.00014888043216339
 336    0.0010293609105076
 337    0.0067384201271473
 338    -0.0050635240839085
 339    -0.015055763183994
 340     0.011403485141138
 341    -0.0085264286518804
 342    -0.00086880231113502
 343    0.0016057260869703
 344    0.0021677194099599
 345    -0.001814620593663
 346    -0.00074159187989004
 347    0.00037022573224512
 348    -0.00057013750939053
 349    0.00016177372356042
 350    -0.00069704259986178
 351    -0.00068974896388598
 352     0.012667349978682
 353      0.02146769117827
 354    0.00024459801846453
 355     -0.00101310930689
 356     0.025124544214365
 357    -9.1757545213261e-05
 358    -0.0023222966704491
 359     0.050083038452139
 360    -0.0059946689007651
 361    -0.0020887466405728
 362    0.0006294282767774
 363     0.008662176499491
 364    2.871641817985e-05
 365    -8.7791755676878e-05
 366    0.00090061146165967
 367     0.001175724638744
 368     0.019056907435899
 369    0.0012644913852287
 370    -0.00060225391877559
 371    0.0010306138017115
 372    -0.00029807662887686
 373    -0.0029777103932789
 374    -0.00033217004806115
 375    0.00016657140143932
 376    -0.0020931622573763
 377    -6.3432198575008e-05
 378    0.0001093702859833
 379    0.00095060809832965
 380    -0.0071393346510606
 381    0.0012772242020236
 382     -0.10469354753158
 383    0.0026915636629115
 384      0.01635452513667
 385      0.04362104805287
 386     0.004696996614359
 387     0.020191591790692
 388     0.066474337727895
 389     0.034288558223981
 390     0.050905534750694
 391     0.062597455068689
 392    -0.0047902058420593
 393    -0.0014064948827352
 394    0.0072831446257759
 395    -0.00012270603854437
 396      0.00108879526237
 397    -0.0089575827770536
 398    -0.0046141276419884
 399     0.015710886821648
 400    -0.011440937694442
 401    -0.0075477388423625
 402    0.0010409658863692
 403    0.0015132993508859
 404    -0.0018306779875942
 405    0.0019566762514086
 406    -0.00090631149492846
 407    0.00056511776357518
 408    0.00060953134385431
 409    -0.001078315621448
 410     0.017928069214011
 411    0.00047203465195488
 412      0.15036702707731
 413    -0.012338932778486
 414    0.0088840546452613
 415    -0.077523324798232
 416    -0.016572765999867
 417     0.012695158620463
 418     -0.11408241301525
 419    -0.053437262754576
 420     0.051969591224154
 421     -0.10388418171202
 422    0.0070520840213542
 423    -0.0026807250206813
 424    -0.00020462159363668
 425    6.0002431847751e-05
 426    0.0013703553980632
 427     0.012749385875117
 428    -0.0050096269766176
 429    -0.0024463001640629
 430    -0.0058789217002459
 431    -0.020616028783347
 432    -0.0015953247539781
 433    0.00033159035182695
 434    0.00095176187725544
 435    0.00088797700801079
 436    0.00065668911751717
 437    0.00084422593924928
 438    0.00035073638694406
 439     0.012660646171595
 440     0.042002126911208
 441     0.012116150239813
 442    0.0003133113459204
 443    0.00070399299317831
 444    0.0021205843672317
 445     0.001943054698432
 446    0.0052354764528248
 447    0.0042757454432904
 448    -0.00012948637214586
 449    0.00042087492988326
 450    0.00069880122452576
 451    -0.0002067239617613
 452    -0.00025926664125036
 453    -0.006839237899456
 454    -0.027192177245601
 455    -0.0060162993686777
 456    -0.00047180855665487
 457    -0.00023724718702994
 458    -0.00099311007208792
 459    -0.0055190500371992
 460    -0.0015883484634648
 461    -0.0025316520323821
 462    0.00010107728127362
 463    -0.0004126348768326
 464    -0.00012885860946644
 465    -9.8667216719641e-05
 466    -0.00031771486573568
 467    -0.00060622968345008
 468    -0.0020353060067053
 469    0.0011499816440798
 470    0.00055289992349239
 471    -5.6049340592045e-06
 472    2.2114053679403e-05
 473    0.0033821675328239
 474    0.00062666656617759
 475    -0.00058950876827743
 476    1.0464257739684e-05
 477    0.00032422618253464
 478    4.9841474589091e-05
 479    -2.7028278058066e-05
 480    -0.00046115920431075
 481    0.0083978568790798
 482     0.028911517904574
 483    0.0090141884173636
 484    -0.00063191307477294
 485    0.00026854827788467
 486    0.0014215567173761
 487    -0.004902900175849
 488    0.0016428602383373
 489    0.0030224934757186
 490    -0.00010141610800829
 491    -0.00059055862460742
 492    5.273547958179e-05
 493    0.00012600133857728
 494    -0.00041920442257092
 495    -0.013588280278202
 496    -0.044863996965723
 497    -0.012264916613459
 498    0.0003545252841597
 499    -0.00057324492545183
 500    -0.0022881960222249
 501     0.002419591200101
 502    -0.0058072842884094
 503    -0.0056071680797333
 504    -0.00010138880981789
 505    0.0006649100733342
 506    -0.00085126484767144
 507    7.850311345186e-05
 508    -0.00019443466862753
